!-Generator IDFEditor 1.53
!-Option SortedOrder

!-NOTE: All comments with '!-' are ignored by the IDFEditor and are generated automatically.
!-      Use '!' comments if they need to be retained when using the IDFEditor.


!-   ===========  ALL OBJECTS IN CLASS: VERSION ===========

! File generated by DesignBuilder - 7.0.0.106 2024-10-01 - ?¤í›„ 11:44:43
! Source file: C:\Users\user\Desktop\WSE+TES_SCI_Final_set.dsb
! Geometry convention template : External measurements
! Zone geometry and surface areas : 2-Outer
! Zone volume calculation method : 1-Inner
! Zone floor area calculation method : 1-Inner
! Window to wall ratio method : 1-Inner
Version,
    23.2;                    !- Version Identifier


!-   ===========  ALL OBJECTS IN CLASS: SIMULATIONCONTROL ===========

SimulationControl,
    Yes,                     !- Do Zone Sizing Calculation
    Yes,                     !- Do System Sizing Calculation
    Yes,                     !- Do Plant Sizing Calculation
    No,                      !- Run Simulation for Sizing Periods
    Yes,                     !- Run Simulation for Weather File Run Periods
    ,                        !- Do HVAC Sizing Simulation for Sizing Periods
    ;                        !- Maximum Number of HVAC Sizing Simulation Passes


!-   ===========  ALL OBJECTS IN CLASS: BUILDING ===========

Building,
    Building,                !- Name
    0,                       !- North Axis {deg}
    Suburbs,                 !- Terrain
    0.04,                    !- Loads Convergence Tolerance Value {W}
    0.4,                     !- Temperature Convergence Tolerance Value {deltaC}
    FullExterior,            !- Solar Distribution
    25,                      !- Maximum Number of Warmup Days
    6;                       !- Minimum Number of Warmup Days


!-   ===========  ALL OBJECTS IN CLASS: SHADOWCALCULATION ===========

ShadowCalculation,
    PolygonClipping,         !- Shading Calculation Method
    Periodic,                !- Shading Calculation Update Frequency Method
    20,                      !- Shading Calculation Update Frequency
    15000,                   !- Maximum Figures in Shadow Overlap Calculations
    SutherlandHodgman,       !- Polygon Clipping Algorithm
    ,                        !- Pixel Counting Resolution
    SimpleSkyDiffuseModeling;!- Sky Diffuse Modeling Algorithm


!-   ===========  ALL OBJECTS IN CLASS: SURFACECONVECTIONALGORITHM:INSIDE ===========

SurfaceConvectionAlgorithm:Inside,
    TARP;                    !- Algorithm


!-   ===========  ALL OBJECTS IN CLASS: SURFACECONVECTIONALGORITHM:OUTSIDE ===========

SurfaceConvectionAlgorithm:Outside,
    DOE-2;                   !- Algorithm


!-   ===========  ALL OBJECTS IN CLASS: HEATBALANCEALGORITHM ===========

HeatBalanceAlgorithm,
    ConductionTransferFunction,  !- Algorithm
    2000,                    !- Surface Temperature Upper Limit {C}
    0.00000001,              !- Minimum Surface Convection Heat Transfer Coefficient Value {W/m2-K}
    1000;                    !- Maximum Surface Convection Heat Transfer Coefficient Value {W/m2-K}


!-   ===========  ALL OBJECTS IN CLASS: ZONECAPACITANCEMULTIPLIER:RESEARCHSPECIAL ===========

ZoneCapacitanceMultiplier:ResearchSpecial,
    All,                     !- Name
    ,                        !- Zone or ZoneList Name
    1,                       !- Temperature Capacity Multiplier
    1.0,                     !- Humidity Capacity Multiplier
    1.0,                     !- Carbon Dioxide Capacity Multiplier
    1.0;                     !- Generic Contaminant Capacity Multiplier


!-   ===========  ALL OBJECTS IN CLASS: TIMESTEP ===========

Timestep,
    2;                       !- Number of Timesteps per Hour


!-   ===========  ALL OBJECTS IN CLASS: CONVERGENCELIMITS ===========

ConvergenceLimits,
    1,                       !- Minimum System Timestep {minutes}
    25;                      !- Maximum HVAC Iterations


!-   ===========  ALL OBJECTS IN CLASS: SITE:LOCATION ===========

! Hourly weather file: C:\ProgramData\DesignBuilder\Weather Data\KOR_PU_Busan-Gimhae.Intl.AP.471530_TMYx.epw
Site:Location,
    Untitled (01-01:31-12)  (01-01:31-12),  !- Name
    35.17,                   !- Latitude {deg}
    128.93,                  !- Longitude {deg}
    9,                       !- Time Zone {hr}
    4;                       !- Elevation {m}


!-   ===========  ALL OBJECTS IN CLASS: SIZINGPERIOD:WEATHERFILEDAYS ===========

SizingPeriod:WeatherFileDays,
    Summer Design Day in Untitled (01-01:31-12),  !- Name
    8,                       !- Begin Month
    21,                      !- Begin Day of Month
    8,                       !- End Month
    21,                      !- End Day of Month
    SummerDesignDay,         !- Day of Week for Start Day
    Yes,                     !- Use Weather File Daylight Saving Period
    Yes;                     !- Use Weather File Rain and Snow Indicators

SizingPeriod:WeatherFileDays,
    Winter Design Day in Untitled (01-01:31-12),  !- Name
    1,                       !- Begin Month
    21,                      !- Begin Day of Month
    1,                       !- End Month
    21,                      !- End Day of Month
    WinterDesignDay,         !- Day of Week for Start Day
    Yes,                     !- Use Weather File Daylight Saving Period
    Yes;                     !- Use Weather File Rain and Snow Indicators


!-   ===========  ALL OBJECTS IN CLASS: RUNPERIOD ===========

RunPeriod,
    Untitled (01-01:31-12),  !- Name
    1,                       !- Begin Month
    1,                       !- Begin Day of Month
    2002,                    !- Begin Year
    12,                      !- End Month
    31,                      !- End Day of Month
    2002,                    !- End Year
    ,                        !- Day of Week for Start Day
    No,                      !- Use Weather File Holidays and Special Days
    Yes,                     !- Use Weather File Daylight Saving Period
    Yes,                     !- Apply Weekend Holiday Rule
    Yes,                     !- Use Weather File Rain Indicators
    Yes,                     !- Use Weather File Snow Indicators
    No;                      !- Treat Weather as Actual


!-   ===========  ALL OBJECTS IN CLASS: SITE:GROUNDTEMPERATURE:BUILDINGSURFACE ===========

Site:GroundTemperature:BuildingSurface,
    18,                      !- January Ground Temperature {C}
    18,                      !- February Ground Temperature {C}
    18,                      !- March Ground Temperature {C}
    18,                      !- April Ground Temperature {C}
    18,                      !- May Ground Temperature {C}
    18,                      !- June Ground Temperature {C}
    18,                      !- July Ground Temperature {C}
    18,                      !- August Ground Temperature {C}
    18,                      !- September Ground Temperature {C}
    18,                      !- October Ground Temperature {C}
    18,                      !- November Ground Temperature {C}
    18;                      !- December Ground Temperature {C}


!-   ===========  ALL OBJECTS IN CLASS: SITE:GROUNDTEMPERATURE:FCFACTORMETHOD ===========

Site:GroundTemperature:FCfactorMethod,
    4.74,                    !- January Ground Temperature {C}
    3.77,                    !- February Ground Temperature {C}
    5.49,                    !- March Ground Temperature {C}
    8.19,                    !- April Ground Temperature {C}
    15.24,                   !- May Ground Temperature {C}
    20.69,                   !- June Ground Temperature {C}
    24.36,                   !- July Ground Temperature {C}
    25.47,                   !- August Ground Temperature {C}
    23.57,                   !- September Ground Temperature {C}
    19.34,                   !- October Ground Temperature {C}
    13.70,                   !- November Ground Temperature {C}
    8.46;                    !- December Ground Temperature {C}


!-   ===========  ALL OBJECTS IN CLASS: SITE:GROUNDTEMPERATURE:SHALLOW ===========

Site:GroundTemperature:Shallow,
    14,                      !- January Surface Ground Temperature {C}
    14,                      !- February Surface Ground Temperature {C}
    14,                      !- March Surface Ground Temperature {C}
    14,                      !- April Surface Ground Temperature {C}
    14,                      !- May Surface Ground Temperature {C}
    14,                      !- June Surface Ground Temperature {C}
    14,                      !- July Surface Ground Temperature {C}
    14,                      !- August Surface Ground Temperature {C}
    14,                      !- September Surface Ground Temperature {C}
    14,                      !- October Surface Ground Temperature {C}
    14,                      !- November Surface Ground Temperature {C}
    14;                      !- December Surface Ground Temperature {C}


!-   ===========  ALL OBJECTS IN CLASS: SITE:GROUNDTEMPERATURE:DEEP ===========

Site:GroundTemperature:Deep,
    14,                      !- January Deep Ground Temperature {C}
    14,                      !- February Deep Ground Temperature {C}
    14,                      !- March Deep Ground Temperature {C}
    14,                      !- April Deep Ground Temperature {C}
    14,                      !- May Deep Ground Temperature {C}
    14,                      !- June Deep Ground Temperature {C}
    14,                      !- July Deep Ground Temperature {C}
    14,                      !- August Deep Ground Temperature {C}
    14,                      !- September Deep Ground Temperature {C}
    14,                      !- October Deep Ground Temperature {C}
    14,                      !- November Deep Ground Temperature {C}
    14;                      !- December Deep Ground Temperature {C}


!-   ===========  ALL OBJECTS IN CLASS: SITE:GROUNDREFLECTANCE ===========

Site:GroundReflectance,
    0.2,                     !- January Ground Reflectance {dimensionless}
    0.2,                     !- February Ground Reflectance {dimensionless}
    0.2,                     !- March Ground Reflectance {dimensionless}
    0.2,                     !- April Ground Reflectance {dimensionless}
    0.2,                     !- May Ground Reflectance {dimensionless}
    0.2,                     !- June Ground Reflectance {dimensionless}
    0.2,                     !- July Ground Reflectance {dimensionless}
    0.2,                     !- August Ground Reflectance {dimensionless}
    0.2,                     !- September Ground Reflectance {dimensionless}
    0.2,                     !- October Ground Reflectance {dimensionless}
    0.2,                     !- November Ground Reflectance {dimensionless}
    0.2;                     !- December Ground Reflectance {dimensionless}


!-   ===========  ALL OBJECTS IN CLASS: SITE:GROUNDREFLECTANCE:SNOWMODIFIER ===========

Site:GroundReflectance:SnowModifier,
    2.0,                     !- Ground Reflected Solar Modifier
    2.0;                     !- Daylighting Ground Reflected Solar Modifier


!-   ===========  ALL OBJECTS IN CLASS: SITE:WATERMAINSTEMPERATURE ===========

Site:WaterMainsTemperature,
    Correlation,             !- Calculation Method
    ,                        !- Temperature Schedule Name
    10,                      !- Annual Average Outdoor Air Temperature {C}
    20;                      !- Maximum Difference In Monthly Average Outdoor Air Temperatures {deltaC}


!-   ===========  ALL OBJECTS IN CLASS: SCHEDULETYPELIMITS ===========

ScheduleTypeLimits,
    Any Number;              !- Name

ScheduleTypeLimits,
    Fraction,                !- Name
    0.0,                     !- Lower Limit Value
    1.0,                     !- Upper Limit Value
    CONTINUOUS;              !- Numeric Type

ScheduleTypeLimits,
    Temperature,             !- Name
    -60,                     !- Lower Limit Value
    200,                     !- Upper Limit Value
    CONTINUOUS;              !- Numeric Type

ScheduleTypeLimits,
    Control Type,            !- Name
    0,                       !- Lower Limit Value
    4,                       !- Upper Limit Value
    DISCRETE;                !- Numeric Type

ScheduleTypeLimits,
    On/Off,                  !- Name
    0,                       !- Lower Limit Value
    1,                       !- Upper Limit Value
    DISCRETE;                !- Numeric Type


!-   ===========  ALL OBJECTS IN CLASS: SCHEDULE:DAY:HOURLY ===========

! off heating day
Schedule:Day:Hourly,
    0,                       !- Name
    Any Number,              !- Schedule Type Limits Name
    0,                       !- Hour 1
    0,                       !- Hour 2
    0,                       !- Hour 3
    0,                       !- Hour 4
    0,                       !- Hour 5
    0,                       !- Hour 6
    0,                       !- Hour 7
    0,                       !- Hour 8
    0,                       !- Hour 9
    0,                       !- Hour 10
    0,                       !- Hour 11
    0,                       !- Hour 12
    0,                       !- Hour 13
    0,                       !- Hour 14
    0,                       !- Hour 15
    0,                       !- Hour 16
    0,                       !- Hour 17
    0,                       !- Hour 18
    0,                       !- Hour 19
    0,                       !- Hour 20
    0,                       !- Hour 21
    0,                       !- Hour 22
    0,                       !- Hour 23
    0;                       !- Hour 24

! off cooling day
Schedule:Day:Hourly,
    50,                      !- Name
    Any Number,              !- Schedule Type Limits Name
    50,                      !- Hour 1
    50,                      !- Hour 2
    50,                      !- Hour 3
    50,                      !- Hour 4
    50,                      !- Hour 5
    50,                      !- Hour 6
    50,                      !- Hour 7
    50,                      !- Hour 8
    50,                      !- Hour 9
    50,                      !- Hour 10
    50,                      !- Hour 11
    50,                      !- Hour 12
    50,                      !- Hour 13
    50,                      !- Hour 14
    50,                      !- Hour 15
    50,                      !- Hour 16
    50,                      !- Hour 17
    50,                      !- Hour 18
    50,                      !- Hour 19
    50,                      !- Hour 20
    50,                      !- Hour 21
    50,                      !- Hour 22
    50,                      !- Hour 23
    50;                      !- Hour 24

! used in seasonal schedules
Schedule:Day:Hourly,
    Off,                     !- Name
    Fraction,                !- Schedule Type Limits Name
    0,                       !- Hour 1
    0,                       !- Hour 2
    0,                       !- Hour 3
    0,                       !- Hour 4
    0,                       !- Hour 5
    0,                       !- Hour 6
    0,                       !- Hour 7
    0,                       !- Hour 8
    0,                       !- Hour 9
    0,                       !- Hour 10
    0,                       !- Hour 11
    0,                       !- Hour 12
    0,                       !- Hour 13
    0,                       !- Hour 14
    0,                       !- Hour 15
    0,                       !- Hour 16
    0,                       !- Hour 17
    0,                       !- Hour 18
    0,                       !- Hour 19
    0,                       !- Hour 20
    0,                       !- Hour 21
    0,                       !- Hour 22
    0,                       !- Hour 23
    0;                       !- Hour 24

! -------------------- Control type schedules (for heating & cooling) ----------------------
Schedule:Day:Hourly,
    Summer Control Type Day Sch,  !- Name
    Control Type,            !- Schedule Type Limits Name
    4,                       !- Hour 1
    4,                       !- Hour 2
    4,                       !- Hour 3
    4,                       !- Hour 4
    4,                       !- Hour 5
    4,                       !- Hour 6
    4,                       !- Hour 7
    4,                       !- Hour 8
    4,                       !- Hour 9
    4,                       !- Hour 10
    4,                       !- Hour 11
    4,                       !- Hour 12
    4,                       !- Hour 13
    4,                       !- Hour 14
    4,                       !- Hour 15
    4,                       !- Hour 16
    4,                       !- Hour 17
    4,                       !- Hour 18
    4,                       !- Hour 19
    4,                       !- Hour 20
    4,                       !- Hour 21
    4,                       !- Hour 22
    4,                       !- Hour 23
    4;                       !- Hour 24

Schedule:Day:Hourly,
    Winter Control Type Day Sch,  !- Name
    Control Type,            !- Schedule Type Limits Name
    4,                       !- Hour 1
    4,                       !- Hour 2
    4,                       !- Hour 3
    4,                       !- Hour 4
    4,                       !- Hour 5
    4,                       !- Hour 6
    4,                       !- Hour 7
    4,                       !- Hour 8
    4,                       !- Hour 9
    4,                       !- Hour 10
    4,                       !- Hour 11
    4,                       !- Hour 12
    4,                       !- Hour 13
    4,                       !- Hour 14
    4,                       !- Hour 15
    4,                       !- Hour 16
    4,                       !- Hour 17
    4,                       !- Hour 18
    4,                       !- Hour 19
    4,                       !- Hour 20
    4,                       !- Hour 21
    4,                       !- Hour 22
    4,                       !- Hour 23
    4;                       !- Hour 24

Schedule:Day:Hourly,
    Summer Control Type Day Sch - cool,  !- Name
    Control Type,            !- Schedule Type Limits Name
    2,                       !- Hour 1
    2,                       !- Hour 2
    2,                       !- Hour 3
    2,                       !- Hour 4
    2,                       !- Hour 5
    2,                       !- Hour 6
    2,                       !- Hour 7
    2,                       !- Hour 8
    2,                       !- Hour 9
    2,                       !- Hour 10
    2,                       !- Hour 11
    2,                       !- Hour 12
    2,                       !- Hour 13
    2,                       !- Hour 14
    2,                       !- Hour 15
    2,                       !- Hour 16
    2,                       !- Hour 17
    2,                       !- Hour 18
    2,                       !- Hour 19
    2,                       !- Hour 20
    2,                       !- Hour 21
    2,                       !- Hour 22
    2,                       !- Hour 23
    2;                       !- Hour 24

Schedule:Day:Hourly,
    Winter Control Type Day Sch - heat,  !- Name
    Control Type,            !- Schedule Type Limits Name
    1,                       !- Hour 1
    1,                       !- Hour 2
    1,                       !- Hour 3
    1,                       !- Hour 4
    1,                       !- Hour 5
    1,                       !- Hour 6
    1,                       !- Hour 7
    1,                       !- Hour 8
    1,                       !- Hour 9
    1,                       !- Hour 10
    1,                       !- Hour 11
    1,                       !- Hour 12
    1,                       !- Hour 13
    1,                       !- Hour 14
    1,                       !- Hour 15
    1,                       !- Hour 16
    1,                       !- Hour 17
    1,                       !- Hour 18
    1,                       !- Hour 19
    1,                       !- Hour 20
    1,                       !- Hour 21
    1,                       !- Hour 22
    1,                       !- Hour 23
    1;                       !- Hour 24


!-   ===========  ALL OBJECTS IN CLASS: SCHEDULE:WEEK:DAILY ===========

Schedule:Week:Daily,
    Off,                     !- Name
    Off,                     !- Sunday Schedule:Day Name
    Off,                     !- Monday Schedule:Day Name
    Off,                     !- Tuesday Schedule:Day Name
    Off,                     !- Wednesday Schedule:Day Name
    Off,                     !- Thursday Schedule:Day Name
    Off,                     !- Friday Schedule:Day Name
    Off,                     !- Saturday Schedule:Day Name
    Off,                     !- Holiday Schedule:Day Name
    Off,                     !- SummerDesignDay Schedule:Day Name
    Off,                     !- WinterDesignDay Schedule:Day Name
    Off,                     !- CustomDay1 Schedule:Day Name
    Off;                     !- CustomDay2 Schedule:Day Name

Schedule:Week:Daily,
    Summer Control Type Week Sch,  !- Name
    Summer Control Type Day Sch,  !- Sunday Schedule:Day Name
    Summer Control Type Day Sch,  !- Monday Schedule:Day Name
    Summer Control Type Day Sch,  !- Tuesday Schedule:Day Name
    Summer Control Type Day Sch,  !- Wednesday Schedule:Day Name
    Summer Control Type Day Sch,  !- Thursday Schedule:Day Name
    Summer Control Type Day Sch,  !- Friday Schedule:Day Name
    Summer Control Type Day Sch,  !- Saturday Schedule:Day Name
    Summer Control Type Day Sch,  !- Holiday Schedule:Day Name
    Summer Control Type Day Sch,  !- SummerDesignDay Schedule:Day Name
    Summer Control Type Day Sch,  !- WinterDesignDay Schedule:Day Name
    Summer Control Type Day Sch,  !- CustomDay1 Schedule:Day Name
    Summer Control Type Day Sch;  !- CustomDay2 Schedule:Day Name

Schedule:Week:Daily,
    Winter Control Type Week Sch,  !- Name
    Winter Control Type Day Sch,  !- Sunday Schedule:Day Name
    Winter Control Type Day Sch,  !- Monday Schedule:Day Name
    Winter Control Type Day Sch,  !- Tuesday Schedule:Day Name
    Winter Control Type Day Sch,  !- Wednesday Schedule:Day Name
    Winter Control Type Day Sch,  !- Thursday Schedule:Day Name
    Winter Control Type Day Sch,  !- Friday Schedule:Day Name
    Winter Control Type Day Sch,  !- Saturday Schedule:Day Name
    Winter Control Type Day Sch,  !- Holiday Schedule:Day Name
    Winter Control Type Day Sch,  !- SummerDesignDay Schedule:Day Name
    Winter Control Type Day Sch,  !- WinterDesignDay Schedule:Day Name
    Winter Control Type Day Sch,  !- CustomDay1 Schedule:Day Name
    Winter Control Type Day Sch;  !- CustomDay2 Schedule:Day Name

Schedule:Week:Daily,
    Summer Control Type Week Sch - cool,  !- Name
    Summer Control Type Day Sch - cool,  !- Sunday Schedule:Day Name
    Summer Control Type Day Sch - cool,  !- Monday Schedule:Day Name
    Summer Control Type Day Sch - cool,  !- Tuesday Schedule:Day Name
    Summer Control Type Day Sch - cool,  !- Wednesday Schedule:Day Name
    Summer Control Type Day Sch - cool,  !- Thursday Schedule:Day Name
    Summer Control Type Day Sch - cool,  !- Friday Schedule:Day Name
    Summer Control Type Day Sch - cool,  !- Saturday Schedule:Day Name
    Summer Control Type Day Sch - cool,  !- Holiday Schedule:Day Name
    Summer Control Type Day Sch - cool,  !- SummerDesignDay Schedule:Day Name
    Summer Control Type Day Sch - cool,  !- WinterDesignDay Schedule:Day Name
    Summer Control Type Day Sch - cool,  !- CustomDay1 Schedule:Day Name
    Summer Control Type Day Sch - cool;  !- CustomDay2 Schedule:Day Name

Schedule:Week:Daily,
    Winter Control Type Week Sch - heat,  !- Name
    Winter Control Type Day Sch - heat,  !- Sunday Schedule:Day Name
    Winter Control Type Day Sch - heat,  !- Monday Schedule:Day Name
    Winter Control Type Day Sch - heat,  !- Tuesday Schedule:Day Name
    Winter Control Type Day Sch - heat,  !- Wednesday Schedule:Day Name
    Winter Control Type Day Sch - heat,  !- Thursday Schedule:Day Name
    Winter Control Type Day Sch - heat,  !- Friday Schedule:Day Name
    Winter Control Type Day Sch - heat,  !- Saturday Schedule:Day Name
    Winter Control Type Day Sch - heat,  !- Holiday Schedule:Day Name
    Winter Control Type Day Sch - heat,  !- SummerDesignDay Schedule:Day Name
    Winter Control Type Day Sch - heat,  !- WinterDesignDay Schedule:Day Name
    Winter Control Type Day Sch - heat,  !- CustomDay1 Schedule:Day Name
    Winter Control Type Day Sch - heat;  !- CustomDay2 Schedule:Day Name


!-   ===========  ALL OBJECTS IN CLASS: SCHEDULE:COMPACT ===========

Schedule:Compact,
    On,                      !- Name
    Any Number,              !- Schedule Type Limits Name
    Through: 12/31,          !- Field 1
    For: AllDays,            !- Field 2
    Until: 24:00,            !- Field 3
    1;                       !- Field 4

Schedule:Compact,
    Off,                     !- Name
    Any Number,              !- Schedule Type Limits Name
    Through: 12/31,          !- Field 1
    For: AllDays,            !- Field 2
    Until: 24:00,            !- Field 3
    0;                       !- Field 4

Schedule:Compact,
    Work efficiency,         !- Name
    Any Number,              !- Schedule Type Limits Name
    Through: 12/31,          !- Field 1
    For: AllDays,            !- Field 2
    Until: 24:00,            !- Field 3
    0;                       !- Field 4

Schedule:Compact,
    OpaqueShade,             !- Name
    Any Number,              !- Schedule Type Limits Name
    Through: 12/31,          !- Field 1
    For: AllDays,            !- Field 2
    Until: 24:00,            !- Field 3
    0;                       !- Field 4

Schedule:Compact,
    Zone Comfort Control Type Sched,  !- Name
    Control Type,            !- Schedule Type Limits Name
    Through: 12/31,          !- Field 1
    For: AllDays,            !- Field 2
    Until: 24:00,            !- Field 3
    4;                       !- Field 4

Schedule:Compact,
    Design Days Only,        !- Name
    Any Number,              !- Schedule Type Limits Name
    Through: 12/31,          !- Field 1
    For: SummerDesignDay WinterDesignDay,  !- Field 2
    Until: 24:00,            !- Field 3
    1,                       !- Field 4
    For: AllOtherDays,       !- Field 5
    Until: 24:00,            !- Field 6
    0;                       !- Field 7

Schedule:Compact,
    TypOperativeTempControlSch,  !- Name
    Temperature,             !- Schedule Type Limits Name
    Through: 31 Dec,         !- Field 1
    For: SummerDesignDay WinterDesignDay,  !- Field 2
    Until: 24:00,            !- Field 3
    0.0,                     !- Field 4
    For: AllOtherDays,       !- Field 5
    Until: 24:00,            !- Field 6
    0.5;                     !- Field 7

Schedule:Compact,
    OnWinterDesignDay,       !- Name
    Any Number,              !- Schedule Type Limits Name
    Through: 12/31,          !- Field 1
    For: WinterDesignDay,    !- Field 2
    Until: 24:00,            !- Field 3
    1,                       !- Field 4
    For: AllOtherDays,       !- Field 5
    Until: 24:00,            !- Field 6
    0;                       !- Field 7

Schedule:Compact,
    OnSummerDesignDay,       !- Name
    Any Number,              !- Schedule Type Limits Name
    Through: 12/31,          !- Field 1
    For: SummerDesignDay,    !- Field 2
    Until: 24:00,            !- Field 3
    1,                       !- Field 4
    For: AllOtherDays,       !- Field 5
    Until: 24:00,            !- Field 6
    0;                       !- Field 7

! Schedule: On 24/7
Schedule:Compact,
    On 24/7,                 !- Name
    Any Number,              !- Schedule Type Limits Name
    Through: 12/31,          !- Field 1
    For: AllDays,            !- Field 2
    Until: 24:00,            !- Field 3
    1;                       !- Field 4

! Schedule: Off 24/7
Schedule:Compact,
    Off 24/7,                !- Name
    Any Number,              !- Schedule Type Limits Name
    Through: 12/31,          !- Field 1
    For: AllDays,            !- Field 2
    Until: 24:00,            !- Field 3
    0;                       !- Field 4

! Schedule: Condenser flow set point temperature: Always 29.0 C
Schedule:Compact,
    Condenser flow set point temperature: Always 29.0 C,  !- Name
    Any Number,              !- Schedule Type Limits Name
    Through: 12/31,          !- Field 1
    For: AllDays,            !- Field 2
    Until: 24:00,            !- Field 3
    29;                      !- Field 4

! Schedule: Air loop cooling set point temperature: Always 14.0 C
Schedule:Compact,
    Air loop cooling set point temperature: Always 14.0 C,  !- Name
    Any Number,              !- Schedule Type Limits Name
    Through: 12/31,          !- Field 1
    For: AllDays,            !- Field 2
    Until: 24:00,            !- Field 3
    14;                      !- Field 4

! Schedule: Heating set point schedule
Schedule:Compact,
    Heating set point schedule,  !- Name
    Any Number,              !- Schedule Type Limits Name
    Through: 12/31,          !- Field 1
    For: AllDays,            !- Field 2
    Until: 24:00,            !- Field 3
    20;                      !- Field 4

! Schedule: Cooling set point schedule
Schedule:Compact,
    Cooling set point schedule,  !- Name
    Any Number,              !- Schedule Type Limits Name
    Through: 12/31,          !- Field 1
    For: AllDays,            !- Field 2
    Until: 24:00,            !- Field 3
    24;                      !- Field 4

! Schedule: Control type schedule: Always 4
Schedule:Compact,
    Control type schedule: Always 4,  !- Name
    Any Number,              !- Schedule Type Limits Name
    Through: 12/31,          !- Field 1
    For: AllDays,            !- Field 2
    Until: 24:00,            !- Field 3
    4;                       !- Field 4

! Schedule: Water heater ambient temperature schedule: Always 20.00
Schedule:Compact,
    Water heater ambient temperature schedule: Always 20.00,  !- Name
    Any Number,              !- Schedule Type Limits Name
    Through: 12/31,          !- Field 1
    For: AllDays,            !- Field 2
    Until: 24:00,            !- Field 3
    20;                      !- Field 4

! Schedule: Relative humidity setpoint schedule: Always 50.00
Schedule:Compact,
    Relative humidity setpoint schedule: Always 50.00,  !- Name
    Any Number,              !- Schedule Type Limits Name
    Through: 12/31,          !- Field 1
    For: AllDays,            !- Field 2
    Until: 24:00,            !- Field 3
    50;                      !- Field 4

! Schedule: Fraction of outdoor air schedule: Always 0.5
Schedule:Compact,
    Fraction of outdoor air schedule: Always 0.5,  !- Name
    Any Number,              !- Schedule Type Limits Name
    Through: 12/31,          !- Field 1
    For: AllDays,            !- Field 2
    Until: 24:00,            !- Field 3
    0.5;                     !- Field 4

! Schedule: Min outdoor air schedule: Always 1.00
Schedule:Compact,
    Min outdoor air schedule: Always 1.00,  !- Name
    Any Number,              !- Schedule Type Limits Name
    Through: 12/31,          !- Field 1
    For: AllDays,            !- Field 2
    Until: 24:00,            !- Field 3
    1;                       !- Field 4

! Schedule: Min supply air flow fraction schedule: Always 0.3
Schedule:Compact,
    Min supply air flow fraction schedule: Always 0.3,  !- Name
    Any Number,              !- Schedule Type Limits Name
    Through: 12/31,          !- Field 1
    For: AllDays,            !- Field 2
    Until: 24:00,            !- Field 3
    0.3;                     !- Field 4

! Schedule: Heating Fanger comfort setpoint: Always -0.5
Schedule:Compact,
    Heating Fanger comfort setpoint: Always -0.5,  !- Name
    Any Number,              !- Schedule Type Limits Name
    Through: 12/31,          !- Field 1
    For: AllDays,            !- Field 2
    Until: 24:00,            !- Field 3
    -0.5;                    !- Field 4

! Schedule: Cooling Fanger comfort setpoint: Always  0.1
Schedule:Compact,
    Cooling Fanger comfort setpoint: Always  0.1,  !- Name
    Any Number,              !- Schedule Type Limits Name
    Through: 12/31,          !- Field 1
    For: AllDays,            !- Field 2
    Until: 24:00,            !- Field 3
    0.1;                     !- Field 4

! Schedule: Heat recovery heating setpoint temperature: Always 11
Schedule:Compact,
    Heat recovery heating setpoint temperature: Always 11,  !- Name
    Any Number,              !- Schedule Type Limits Name
    Through: 12/31,          !- Field 1
    For: AllDays,            !- Field 2
    Until: 24:00,            !- Field 3
    11;                      !- Field 4

! Schedule: Zone CO2 setpoint: Always 900ppm
Schedule:Compact,
    Zone CO2 setpoint: Always 900ppm,  !- Name
    Any Number,              !- Schedule Type Limits Name
    Through: 12/31,          !- Field 1
    For: AllDays,            !- Field 2
    Until: 24:00,            !- Field 3
    900;                     !- Field 4

! Schedule: Min CO2 concentration: Always 600ppm
Schedule:Compact,
    Min CO2 concentration: Always 600ppm,  !- Name
    Any Number,              !- Schedule Type Limits Name
    Through: 12/31,          !- Field 1
    For: AllDays,            !- Field 2
    Until: 24:00,            !- Field 3
    600;                     !- Field 4

! Schedule: Generic contaminant setpoint: Always 0.5ppm
Schedule:Compact,
    Generic contaminant setpoint: Always 0.5ppm,  !- Name
    Any Number,              !- Schedule Type Limits Name
    Through: 12/31,          !- Field 1
    For: AllDays,            !- Field 2
    Until: 24:00,            !- Field 3
    0.5;                     !- Field 4

! Schedule: Air distribution effectiveness (always 1)
Schedule:Compact,
    Air distribution effectiveness (always 1),  !- Name
    Any Number,              !- Schedule Type Limits Name
    Through: 12/31,          !- Field 1
    For: AllDays,            !- Field 2
    Until: 24:00,            !- Field 3
    1;                       !- Field 4

! Schedule: Misc24Hr_DataCentre_Occ
Schedule:Compact,
    Misc24Hr_DataCentre_Occ, !- Name
    Fraction,                !- Schedule Type Limits Name
    Through: 31 Dec,         !- Field 1
    For: AllDays,            !- Field 2
    Until: 09:00,            !- Field 3
    0.5,                     !- Field 4
    Until: 17:00,            !- Field 5
    1,                       !- Field 6
    Until: 24:00,            !- Field 7
    0.5;                     !- Field 8

! Schedule: Misc24Hr_DataCentre_Light
Schedule:Compact,
    Misc24Hr_DataCentre_Light,  !- Name
    Fraction,                !- Schedule Type Limits Name
    Through: 31 Dec,         !- Field 1
    For: AllDays,            !- Field 2
    Until: 24:00,            !- Field 3
    1;                       !- Field 4

! Schedule: Misc24Hr_DataCentre_Equip
Schedule:Compact,
    Misc24Hr_DataCentre_Equip,  !- Name
    Fraction,                !- Schedule Type Limits Name
    Through: 31 Dec,         !- Field 1
    For: AllDays,            !- Field 2
    Until: 24:00,            !- Field 3
    1;                       !- Field 4

! Schedule: Loop high setpoint temperature: Always 32.00
Schedule:Compact,
    Loop high setpoint temperature: Always 32.00,  !- Name
    Any Number,              !- Schedule Type Limits Name
    Through: 12/31,          !- Field 1
    For: AllDays,            !- Field 2
    Until: 24:00,            !- Field 3
    32;                      !- Field 4

! Schedule: Loop low setpoint temperature: Always 15.00
Schedule:Compact,
    Loop low setpoint temperature: Always 15.00,  !- Name
    Any Number,              !- Schedule Type Limits Name
    Through: 12/31,          !- Field 1
    For: AllDays,            !- Field 2
    Until: 24:00,            !- Field 3
    15;                      !- Field 4

! Schedule: Max CO2 concentration: Always 900ppm
Schedule:Compact,
    Max CO2 concentration: Always 900ppm,  !- Name
    Any Number,              !- Schedule Type Limits Name
    Through: 12/31,          !- Field 1
    For: AllDays,            !- Field 2
    Until: 24:00,            !- Field 3
    900;                     !- Field 4

! Schedule: Default Air Velocity for Comfort Calculations
Schedule:Compact,
    Default Air Velocity for Comfort Calculations,  !- Name
    Any Number,              !- Schedule Type Limits Name
    Through: 12/31,          !- Field 1
    For: AllDays,            !- Field 2
    Until: 24:00,            !- Field 3
    0.1370;                  !- Field 4

! Schedule: Cooling fraction schedule
Schedule:Compact,
    Cooling fraction schedule,  !- Name
    Fraction,                !- Schedule Type Limits Name
    Through: 31 Dec,         !- Field 1
    For: AllDays,            !- Field 2
    Until: 24:00,            !- Field 3
    1;                       !- Field 4

! Schedule: Heating fraction schedule
Schedule:Compact,
    Heating fraction schedule,  !- Name
    Fraction,                !- Schedule Type Limits Name
    Through: 31 Dec,         !- Field 1
    For: AllDays,            !- Field 2
    Until: 24:00,            !- Field 3
    1;                       !- Field 4

! Schedule: Chilled water flow set point temperature: Always 10 C
Schedule:Compact,
    Chilled water flow set point temperature: Always 10 C,  !- Name
    Any Number,              !- Schedule Type Limits Name
    Through: 12/31,          !- Field 1
    For: AllDays,            !- Field 2
    Until: 24:00,            !- Field 3
    10;                      !- Field 4

! Schedule: 2:00 - 5:00 Every day
Schedule:Compact,
    2:00 - 5:00 Every day,   !- Name
    Fraction,                !- Schedule Type Limits Name
    Through: 31 Dec,         !- Field 1
    For: AllDays,            !- Field 2
    Until: 02:00,            !- Field 3
    0,                       !- Field 4
    Until: 05:00,            !- Field 5
    1,                       !- Field 6
    Until: 24:00,            !- Field 7
    0;                       !- Field 8

! Schedule: Air loop cooling set point temperature: Always 16.0 C
Schedule:Compact,
    Air loop cooling set point temperature: Always 16.0 C,  !- Name
    Any Number,              !- Schedule Type Limits Name
    Through: 12/31,          !- Field 1
    For: AllDays,            !- Field 2
    Until: 24:00,            !- Field 3
    16;                      !- Field 4

! Schedule: Chilled water flow set point temperature: Always 5 C
Schedule:Compact,
    Chilled water flow set point temperature: Always 5 C,  !- Name
    Any Number,              !- Schedule Type Limits Name
    Through: 12/31,          !- Field 1
    For: AllDays,            !- Field 2
    Until: 24:00,            !- Field 3
    5;                       !- Field 4

! Schedule: Chilled water storage cooling set point temperature Always 5 C
Schedule:Compact,
    Chilled water storage cooling set point temperature Always 5 C,  !- Name
    Any Number,              !- Schedule Type Limits Name
    Through: 12/31,          !- Field 1
    For: AllDays,            !- Field 2
    Until: 24:00,            !- Field 3
    5;                       !- Field 4

! Schedule: 13:00 - 19:00 Every day
Schedule:Compact,
    13:00 - 19:00 Every day, !- Name
    Fraction,                !- Schedule Type Limits Name
    Through: 31 Dec,         !- Field 1
    For: AllDays,            !- Field 2
    Until: 13:00,            !- Field 3
    0,                       !- Field 4
    Until: 19:00,            !- Field 5
    1,                       !- Field 6
    Until: 24:00,            !- Field 7
    0;                       !- Field 8

Schedule:Compact,
    Activity Schedule 4866,  !- Name
    Any Number,              !- Schedule Type Limits Name
    Through: 12/31,          !- Field 1
    For: AllDays,            !- Field 2
    Until: 24:00,            !- Field 3
    126;                     !- Field 4

Schedule:Compact,
    Clothing Schedule 4866,  !- Name
    Any Number,              !- Schedule Type Limits Name
    Through: 4/1,            !- Field 1
    For: AllDays,            !- Field 2
    Until: 24:00,            !- Field 3
    1,                       !- Field 4
    Through: 9/30,           !- Field 5
    For: AllDays,            !- Field 6
    Until: 24:00,            !- Field 7
    .5,                      !- Field 8
    Through: 12/31,          !- Field 9
    For: AllDays,            !- Field 10
    Until: 24:00,            !- Field 11
    1;                       !- Field 12

Schedule:Compact,
    Activity Schedule 4873,  !- Name
    Any Number,              !- Schedule Type Limits Name
    Through: 12/31,          !- Field 1
    For: AllDays,            !- Field 2
    Until: 24:00,            !- Field 3
    126;                     !- Field 4

Schedule:Compact,
    Clothing Schedule 4873,  !- Name
    Any Number,              !- Schedule Type Limits Name
    Through: 4/1,            !- Field 1
    For: AllDays,            !- Field 2
    Until: 24:00,            !- Field 3
    1,                       !- Field 4
    Through: 9/30,           !- Field 5
    For: AllDays,            !- Field 6
    Until: 24:00,            !- Field 7
    .5,                      !- Field 8
    Through: 12/31,          !- Field 9
    For: AllDays,            !- Field 10
    Until: 24:00,            !- Field 11
    1;                       !- Field 12

Schedule:Compact,
    Activity Schedule 4880,  !- Name
    Any Number,              !- Schedule Type Limits Name
    Through: 12/31,          !- Field 1
    For: AllDays,            !- Field 2
    Until: 24:00,            !- Field 3
    126;                     !- Field 4

Schedule:Compact,
    Clothing Schedule 4880,  !- Name
    Any Number,              !- Schedule Type Limits Name
    Through: 4/1,            !- Field 1
    For: AllDays,            !- Field 2
    Until: 24:00,            !- Field 3
    1,                       !- Field 4
    Through: 9/30,           !- Field 5
    For: AllDays,            !- Field 6
    Until: 24:00,            !- Field 7
    .5,                      !- Field 8
    Through: 12/31,          !- Field 9
    For: AllDays,            !- Field 10
    Until: 24:00,            !- Field 11
    1;                       !- Field 12

Schedule:Compact,
    Activity Schedule 4895,  !- Name
    Any Number,              !- Schedule Type Limits Name
    Through: 12/31,          !- Field 1
    For: AllDays,            !- Field 2
    Until: 24:00,            !- Field 3
    126;                     !- Field 4

Schedule:Compact,
    Clothing Schedule 4895,  !- Name
    Any Number,              !- Schedule Type Limits Name
    Through: 4/1,            !- Field 1
    For: AllDays,            !- Field 2
    Until: 24:00,            !- Field 3
    1,                       !- Field 4
    Through: 9/30,           !- Field 5
    For: AllDays,            !- Field 6
    Until: 24:00,            !- Field 7
    .5,                      !- Field 8
    Through: 12/31,          !- Field 9
    For: AllDays,            !- Field 10
    Until: 24:00,            !- Field 11
    1;                       !- Field 12

Schedule:Compact,
    Activity Schedule 4904,  !- Name
    Any Number,              !- Schedule Type Limits Name
    Through: 12/31,          !- Field 1
    For: AllDays,            !- Field 2
    Until: 24:00,            !- Field 3
    126;                     !- Field 4

Schedule:Compact,
    Clothing Schedule 4904,  !- Name
    Any Number,              !- Schedule Type Limits Name
    Through: 4/1,            !- Field 1
    For: AllDays,            !- Field 2
    Until: 24:00,            !- Field 3
    1,                       !- Field 4
    Through: 9/30,           !- Field 5
    For: AllDays,            !- Field 6
    Until: 24:00,            !- Field 7
    .5,                      !- Field 8
    Through: 12/31,          !- Field 9
    For: AllDays,            !- Field 10
    Until: 24:00,            !- Field 11
    1;                       !- Field 12

Schedule:Compact,
    Activity Schedule 4911,  !- Name
    Any Number,              !- Schedule Type Limits Name
    Through: 12/31,          !- Field 1
    For: AllDays,            !- Field 2
    Until: 24:00,            !- Field 3
    126;                     !- Field 4

Schedule:Compact,
    Clothing Schedule 4911,  !- Name
    Any Number,              !- Schedule Type Limits Name
    Through: 4/1,            !- Field 1
    For: AllDays,            !- Field 2
    Until: 24:00,            !- Field 3
    1,                       !- Field 4
    Through: 9/30,           !- Field 5
    For: AllDays,            !- Field 6
    Until: 24:00,            !- Field 7
    .5,                      !- Field 8
    Through: 12/31,          !- Field 9
    For: AllDays,            !- Field 10
    Until: 24:00,            !- Field 11
    1;                       !- Field 12

Schedule:Compact,
    Activity Schedule 4918,  !- Name
    Any Number,              !- Schedule Type Limits Name
    Through: 12/31,          !- Field 1
    For: AllDays,            !- Field 2
    Until: 24:00,            !- Field 3
    126;                     !- Field 4

Schedule:Compact,
    Clothing Schedule 4918,  !- Name
    Any Number,              !- Schedule Type Limits Name
    Through: 4/1,            !- Field 1
    For: AllDays,            !- Field 2
    Until: 24:00,            !- Field 3
    1,                       !- Field 4
    Through: 9/30,           !- Field 5
    For: AllDays,            !- Field 6
    Until: 24:00,            !- Field 7
    .5,                      !- Field 8
    Through: 12/31,          !- Field 9
    For: AllDays,            !- Field 10
    Until: 24:00,            !- Field 11
    1;                       !- Field 12

! Modified schedule: Misc24Hr_DataCentre_Heat
Schedule:Compact,
    3F:DC Heating Setpoint Schedule,  !- Name
    Temperature,             !- Schedule Type Limits Name
    Through: 31 Dec,         !- Field 1
    For: AllDays,            !- Field 2
    Until: 24:00,            !- Field 3
    29;                      !- Field 4

! Modified schedule: Misc24Hr_DataCentre_Cool
Schedule:Compact,
    3F:DC Cooling Setpoint Schedule,  !- Name
    Temperature,             !- Schedule Type Limits Name
    Through: 31 Dec,         !- Field 1
    For: AllDays,            !- Field 2
    Until: 24:00,            !- Field 3
    29;                      !- Field 4

! Modified schedule: Misc24Hr_DataCentre_Heat
Schedule:Compact,
    3F:BTXRXup Heating Setpoint Schedule,  !- Name
    Temperature,             !- Schedule Type Limits Name
    Through: 31 Dec,         !- Field 1
    For: AllDays,            !- Field 2
    Until: 24:00,            !- Field 3
    35;                      !- Field 4

! Modified schedule: Misc24Hr_DataCentre_Cool
Schedule:Compact,
    3F:BTXRXup Cooling Setpoint Schedule,  !- Name
    Temperature,             !- Schedule Type Limits Name
    Through: 31 Dec,         !- Field 1
    For: AllDays,            !- Field 2
    Until: 24:00,            !- Field 3
    35;                      !- Field 4

! Modified schedule: Misc24Hr_DataCentre_Heat
Schedule:Compact,
    3F:EXRXup Heating Setpoint Schedule,  !- Name
    Temperature,             !- Schedule Type Limits Name
    Through: 31 Dec,         !- Field 1
    For: AllDays,            !- Field 2
    Until: 24:00,            !- Field 3
    25;                      !- Field 4

! Modified schedule: Misc24Hr_DataCentre_Cool
Schedule:Compact,
    3F:EXRXup Cooling Setpoint Schedule,  !- Name
    Temperature,             !- Schedule Type Limits Name
    Through: 31 Dec,         !- Field 1
    For: AllDays,            !- Field 2
    Until: 24:00,            !- Field 3
    25;                      !- Field 4

! Modified schedule: Misc24Hr_DataCentre_Heat
Schedule:Compact,
    3F:UPSXup Heating Setpoint Schedule,  !- Name
    Temperature,             !- Schedule Type Limits Name
    Through: 31 Dec,         !- Field 1
    For: AllDays,            !- Field 2
    Until: 24:00,            !- Field 3
    25;                      !- Field 4

! Modified schedule: Misc24Hr_DataCentre_Cool
Schedule:Compact,
    3F:UPSXup Cooling Setpoint Schedule,  !- Name
    Temperature,             !- Schedule Type Limits Name
    Through: 31 Dec,         !- Field 1
    For: AllDays,            !- Field 2
    Until: 24:00,            !- Field 3
    25;                      !- Field 4

! Modified schedule: Misc24Hr_DataCentre_Heat
Schedule:Compact,
    3F:UPSXdown Heating Setpoint Schedule,  !- Name
    Temperature,             !- Schedule Type Limits Name
    Through: 31 Dec,         !- Field 1
    For: AllDays,            !- Field 2
    Until: 24:00,            !- Field 3
    25;                      !- Field 4

! Modified schedule: Misc24Hr_DataCentre_Cool
Schedule:Compact,
    3F:UPSXdown Cooling Setpoint Schedule,  !- Name
    Temperature,             !- Schedule Type Limits Name
    Through: 31 Dec,         !- Field 1
    For: AllDays,            !- Field 2
    Until: 24:00,            !- Field 3
    25;                      !- Field 4

! Modified schedule: Misc24Hr_DataCentre_Heat
Schedule:Compact,
    3F:EXRXdown Heating Setpoint Schedule,  !- Name
    Temperature,             !- Schedule Type Limits Name
    Through: 31 Dec,         !- Field 1
    For: AllDays,            !- Field 2
    Until: 24:00,            !- Field 3
    25;                      !- Field 4

! Modified schedule: Misc24Hr_DataCentre_Cool
Schedule:Compact,
    3F:EXRXdown Cooling Setpoint Schedule,  !- Name
    Temperature,             !- Schedule Type Limits Name
    Through: 31 Dec,         !- Field 1
    For: AllDays,            !- Field 2
    Until: 24:00,            !- Field 3
    25;                      !- Field 4

! Modified schedule: Misc24Hr_DataCentre_Heat
Schedule:Compact,
    3F:BTXRXdown Heating Setpoint Schedule,  !- Name
    Temperature,             !- Schedule Type Limits Name
    Through: 31 Dec,         !- Field 1
    For: AllDays,            !- Field 2
    Until: 24:00,            !- Field 3
    35;                      !- Field 4

! Modified schedule: Misc24Hr_DataCentre_Cool
Schedule:Compact,
    3F:BTXRXdown Cooling Setpoint Schedule,  !- Name
    Temperature,             !- Schedule Type Limits Name
    Through: 31 Dec,         !- Field 1
    For: AllDays,            !- Field 2
    Until: 24:00,            !- Field 3
    35;                      !- Field 4


!-   ===========  ALL OBJECTS IN CLASS: MATERIAL ===========

! External Rendering- thickness 0.025
Material,
    External Rendering_.025, !- Name
    Rough,                   !- Roughness
    0.025,                   !- Thickness {m}
    0.5,                     !- Conductivity {W/m-K}
    1300,                    !- Density {kg/m3}
    1000,                    !- Specific Heat {J/kg-K}
    0.9,                     !- Thermal Absorptance
    0.7,                     !- Solar Absorptance
    0.7;                     !- Visible Absorptance

! MW Stone Wool (rolls)- thickness 0.1261
Material,
    MW Stone Wool (rolls)_.1261,  !- Name
    Rough,                   !- Roughness
    0.1261,                  !- Thickness {m}
    0.04,                    !- Conductivity {W/m-K}
    30,                      !- Density {kg/m3}
    840,                     !- Specific Heat {J/kg-K}
    0.9,                     !- Thermal Absorptance
    0.6,                     !- Solar Absorptance
    0.6;                     !- Visible Absorptance

! Timber Flooring- thickness 0.005
Material,
    Timber Flooring_.005,    !- Name
    Rough,                   !- Roughness
    0.005,                   !- Thickness {m}
    0.14,                    !- Conductivity {W/m-K}
    650,                     !- Density {kg/m3}
    1200,                    !- Specific Heat {J/kg-K}
    0.9,                     !- Thermal Absorptance
    0.78,                    !- Solar Absorptance
    0.78;                    !- Visible Absorptance

! Asphalt 1- thickness 0.01
Material,
    Asphalt 1_.01,           !- Name
    Rough,                   !- Roughness
    0.01,                    !- Thickness {m}
    0.7,                     !- Conductivity {W/m-K}
    2100,                    !- Density {kg/m3}
    1000,                    !- Specific Heat {J/kg-K}
    0.9,                     !- Thermal Absorptance
    0.85,                    !- Solar Absorptance
    0.9;                     !- Visible Absorptance

! MW Glass Wool (rolls)- thickness 0.2512
Material,
    MW Glass Wool (rolls)_.2512,  !- Name
    Rough,                   !- Roughness
    0.2512,                  !- Thickness {m}
    0.04,                    !- Conductivity {W/m-K}
    12,                      !- Density {kg/m3}
    840,                     !- Specific Heat {J/kg-K}
    0.9,                     !- Thermal Absorptance
    0.6,                     !- Solar Absorptance
    0.6;                     !- Visible Absorptance

! Plasterboard- thickness 0.013
Material,
    Plasterboard_.013,       !- Name
    Rough,                   !- Roughness
    0.013,                   !- Thickness {m}
    0.25,                    !- Conductivity {W/m-K}
    2800,                    !- Density {kg/m3}
    896,                     !- Specific Heat {J/kg-K}
    0.9,                     !- Thermal Absorptance
    0.5,                     !- Solar Absorptance
    0.5;                     !- Visible Absorptance

! Gypsum Plasterboard- thickness 0.025
Material,
    Gypsum Plasterboard_.025,!- Name
    Rough,                   !- Roughness
    0.025,                   !- Thickness {m}
    0.25,                    !- Conductivity {W/m-K}
    900,                     !- Density {kg/m3}
    1000,                    !- Specific Heat {J/kg-K}
    0.9,                     !- Thermal Absorptance
    0.5,                     !- Solar Absorptance
    0.5;                     !- Visible Absorptance


!-   ===========  ALL OBJECTS IN CLASS: MATERIAL:NOMASS ===========

!Material:InfraredTransparent,
!IRTMaterial; !- Name
!Construction,
!IRTSurface,  !- Name
!IRTMaterial; !- Outside Layer
Material:NoMass,
    LinearBridgingLayer,     !- Name
    Rough,                   !- Roughness
    0.6267,                  !- Thermal Resistance {m2-K/W}
    0.0100000,               !- Thermal Absorptance
    0.0100000,               !- Solar Absorptance
    0.0100000;               !- Visible Absorptance

! Special material to represent an R-value for the next construction
Material:NoMass,
    3_RVAL_3,                !- Name
    Rough,                   !- Roughness
    0.18,                    !- Thermal Resistance {m2-K/W}
    0.9,                     !- Thermal Absorptance
    0.7,                     !- Solar Absorptance
    0.7;                     !- Visible Absorptance

! Special material to represent an R-value for the next construction
Material:NoMass,
    4_RVAL_2,                !- Name
    Rough,                   !- Roughness
    0.18,                    !- Thermal Resistance {m2-K/W}
    0.9,                     !- Thermal Absorptance
    0.7,                     !- Solar Absorptance
    0.7;                     !- Visible Absorptance

! Special material to represent an R-value for the next construction
Material:NoMass,
    5_RVAL_2,                !- Name
    Rough,                   !- Roughness
    0.15,                    !- Thermal Resistance {m2-K/W}
    0.9,                     !- Thermal Absorptance
    0.7,                     !- Solar Absorptance
    0.7;                     !- Visible Absorptance

! Special material to represent an R-value for the next construction
Material:NoMass,
    6_RVAL_2,                !- Name
    Rough,                   !- Roughness
    0.15,                    !- Thermal Resistance {m2-K/W}
    0.9,                     !- Thermal Absorptance
    0.7,                     !- Solar Absorptance
    0.7;                     !- Visible Absorptance


!-   ===========  ALL OBJECTS IN CLASS: MATERIAL:INFRAREDTRANSPARENT ===========

Material:InfraredTransparent,
    IRTMaterial;             !- Name


!-   ===========  ALL OBJECTS IN CLASS: WINDOWMATERIAL:GLAZING ===========

WindowMaterial:Glazing,
    2,                       !- Name
    SpectralAverage,         !- Optical Data Type
    ,                        !- Window Glass Spectral Data Set Name
    0.003,                   !- Thickness {m}
    0.837,                   !- Solar Transmittance at Normal Incidence
    0.075,                   !- Front Side Solar Reflectance at Normal Incidence
    0.075,                   !- Back Side Solar Reflectance at Normal Incidence
    0.898,                   !- Visible Transmittance at Normal Incidence
    0.081,                   !- Front Side Visible Reflectance at Normal Incidence
    0.081,                   !- Back Side Visible Reflectance at Normal Incidence
    0.0,                     !- Infrared Transmittance at Normal Incidence
    0.84,                    !- Front Side Infrared Hemispherical Emissivity
    0.84,                    !- Back Side Infrared Hemispherical Emissivity
    0.9,                     !- Conductivity {W/m-K}
    1;                       !- Dirt Correction Factor for Solar and Visible Transmittance

WindowMaterial:Glazing,
    38,                      !- Name
    SpectralAverage,         !- Optical Data Type
    ,                        !- Window Glass Spectral Data Set Name
    0.003,                   !- Thickness {m}
    0.740,                   !- Solar Transmittance at Normal Incidence
    0.090,                   !- Front Side Solar Reflectance at Normal Incidence
    0.100,                   !- Back Side Solar Reflectance at Normal Incidence
    0.820,                   !- Visible Transmittance at Normal Incidence
    0.110,                   !- Front Side Visible Reflectance at Normal Incidence
    0.120,                   !- Back Side Visible Reflectance at Normal Incidence
    0.0,                     !- Infrared Transmittance at Normal Incidence
    0.84,                    !- Front Side Infrared Hemispherical Emissivity
    0.20,                    !- Back Side Infrared Hemispherical Emissivity
    0.9,                     !- Conductivity {W/m-K}
    1;                       !- Dirt Correction Factor for Solar and Visible Transmittance


!-   ===========  ALL OBJECTS IN CLASS: WINDOWMATERIAL:GAS ===========

WindowMaterial:Gas,
    1001,                    !- Name
    Air,                     !- Gas Type
    0.006;                   !- Thickness {m}

WindowMaterial:Gas,
    Half thickness 1001,     !- Name
    Air,                     !- Gas Type
    0.003;                   !- Thickness {m}

WindowMaterial:Gas,
    1002,                    !- Name
    Air,                     !- Gas Type
    0.013;                   !- Thickness {m}

WindowMaterial:Gas,
    Half thickness 1002,     !- Name
    Air,                     !- Gas Type
    0.0065;                  !- Thickness {m}


!-   ===========  ALL OBJECTS IN CLASS: CONSTRUCTION ===========

Construction,
    LinearBridgingConstruction,  !- Name
    LinearBridgingLayer;     !- Outside Layer

Construction,
    IRTSurface,              !- Name
    IRTMaterial;             !- Outside Layer

! floor
Construction,
    floor,                   !- Name
    External Rendering_.025, !- Outside Layer
    MW Stone Wool (rolls)_.1261,  !- Layer 2
    Timber Flooring_.005;    !- Layer 3

! <Previous reversed>
Construction,
    floor_Rev,               !- Name
    Timber Flooring_.005,    !- Outside Layer
    MW Stone Wool (rolls)_.1261,  !- Layer 2
    External Rendering_.025; !- Layer 3

! roof
Construction,
    roof,                    !- Name
    Asphalt 1_.01,           !- Outside Layer
    MW Glass Wool (rolls)_.2512,  !- Layer 2
    3_RVAL_3,                !- Layer 3
    Plasterboard_.013;       !- Layer 4

! <Previous reversed>
Construction,
    roof_Rev,                !- Name
    Plasterboard_.013,       !- Outside Layer
    4_RVAL_2,                !- Layer 2
    MW Glass Wool (rolls)_.2512,  !- Layer 3
    Asphalt 1_.01;           !- Layer 4

! Project partition
Construction,
    Project partition,       !- Name
    Gypsum Plasterboard_.025,!- Outside Layer
    5_RVAL_2,                !- Layer 2
    Gypsum Plasterboard_.025;!- Layer 3

! <Previous reversed>
Construction,
    Project partition_Rev,   !- Name
    Gypsum Plasterboard_.025,!- Outside Layer
    6_RVAL_2,                !- Layer 2
    Gypsum Plasterboard_.025;!- Layer 3

Construction,
    Project roof glazing - 1001,  !- Name
    2,                       !- Outside Layer
    1001,                    !- Layer 2
    2,                       !- Layer 3
    1001,                    !- Layer 4
    2;                       !- Layer 5

Construction,
    Project external glazing - 1002,  !- Name
    38,                      !- Outside Layer
    1002,                    !- Layer 2
    2;                       !- Layer 3


!-   ===========  ALL OBJECTS IN CLASS: GLOBALGEOMETRYRULES ===========

GlobalGeometryRules,
    LowerLeftCorner,         !- Starting Vertex Position
    CounterClockWise,        !- Vertex Entry Direction
    Relative;                !- Coordinate System


!-   ===========  ALL OBJECTS IN CLASS: ZONE ===========

! 3F - BT.R_up
Zone,
    3F:BTXRXup,              !- Name
    0,                       !- Direction of Relative North {deg}
    0,                       !- X Origin {m}
    0,                       !- Y Origin {m}
    0,                       !- Z Origin {m}
    1,                       !- Type
    1,                       !- Multiplier
    ,                        !- Ceiling Height {m}
    727.3952,                !- Volume {m3}
    92.7339,                 !- Floor Area {m2}
    TARP,                    !- Zone Inside Convection Algorithm
    ,                        !- Zone Outside Convection Algorithm
    Yes;                     !- Part of Total Floor Area

! 3F - E.R_up
Zone,
    3F:EXRXup,               !- Name
    0,                       !- Direction of Relative North {deg}
    0,                       !- X Origin {m}
    0,                       !- Y Origin {m}
    0,                       !- Z Origin {m}
    1,                       !- Type
    1,                       !- Multiplier
    ,                        !- Ceiling Height {m}
    1219.2628,               !- Volume {m3}
    155.4409,                !- Floor Area {m2}
    TARP,                    !- Zone Inside Convection Algorithm
    ,                        !- Zone Outside Convection Algorithm
    Yes;                     !- Part of Total Floor Area

! 3F - UPS_up
Zone,
    3F:UPSXup,               !- Name
    0,                       !- Direction of Relative North {deg}
    0,                       !- X Origin {m}
    0,                       !- Y Origin {m}
    0,                       !- Z Origin {m}
    1,                       !- Type
    1,                       !- Multiplier
    ,                        !- Ceiling Height {m}
    973.3109,                !- Volume {m3}
    124.0851,                !- Floor Area {m2}
    TARP,                    !- Zone Inside Convection Algorithm
    ,                        !- Zone Outside Convection Algorithm
    Yes;                     !- Part of Total Floor Area

! 3F - DC
Zone,
    3F:DC,                   !- Name
    0,                       !- Direction of Relative North {deg}
    0,                       !- X Origin {m}
    0,                       !- Y Origin {m}
    0,                       !- Z Origin {m}
    1,                       !- Type
    1,                       !- Multiplier
    ,                        !- Ceiling Height {m}
    5935.8125,               !- Volume {m3}
    756.7425,                !- Floor Area {m2}
    TARP,                    !- Zone Inside Convection Algorithm
    ,                        !- Zone Outside Convection Algorithm
    Yes;                     !- Part of Total Floor Area

! 3F - UPS_down
Zone,
    3F:UPSXdown,             !- Name
    0,                       !- Direction of Relative North {deg}
    0,                       !- X Origin {m}
    0,                       !- Y Origin {m}
    0,                       !- Z Origin {m}
    1,                       !- Type
    1,                       !- Multiplier
    ,                        !- Ceiling Height {m}
    690.3878,                !- Volume {m3}
    88.0159,                 !- Floor Area {m2}
    TARP,                    !- Zone Inside Convection Algorithm
    ,                        !- Zone Outside Convection Algorithm
    Yes;                     !- Part of Total Floor Area

! 3F - E.R_down
Zone,
    3F:EXRXdown,             !- Name
    0,                       !- Direction of Relative North {deg}
    0,                       !- X Origin {m}
    0,                       !- Y Origin {m}
    0,                       !- Z Origin {m}
    1,                       !- Type
    1,                       !- Multiplier
    ,                        !- Ceiling Height {m}
    864.7684,                !- Volume {m3}
    110.2472,                !- Floor Area {m2}
    TARP,                    !- Zone Inside Convection Algorithm
    ,                        !- Zone Outside Convection Algorithm
    Yes;                     !- Part of Total Floor Area

! 3F - BT.R_down
Zone,
    3F:BTXRXdown,            !- Name
    0,                       !- Direction of Relative North {deg}
    0,                       !- X Origin {m}
    0,                       !- Y Origin {m}
    0,                       !- Z Origin {m}
    1,                       !- Type
    1,                       !- Multiplier
    ,                        !- Ceiling Height {m}
    516.0028,                !- Volume {m3}
    65.784,                  !- Floor Area {m2}
    TARP,                    !- Zone Inside Convection Algorithm
    ,                        !- Zone Outside Convection Algorithm
    Yes;                     !- Part of Total Floor Area


!-   ===========  ALL OBJECTS IN CLASS: BUILDINGSURFACE:DETAILED ===========

! 3F, BT.R_up, External floor - 95.680 m2, Surface Area: 95.680m2
BuildingSurface:Detailed,
    3F:BTXRXup_ExtFloor_0_0_0,  !- Name
    Floor,                   !- Surface Type
    floor,                   !- Construction Name
    3F:BTXRXup,              !- Zone Name
    ,                        !- Space Name
    Outdoors,                !- Outside Boundary Condition
    ,                        !- Outside Boundary Condition Object
    SunExposed,              !- Sun Exposure
    WindExposed,             !- Wind Exposure
    AutoCalculate,           !- View Factor to Ground
    4,                       !- Number of Vertices
    41.9276439732,           !- Vertex 1 X-coordinate {m}
    -54.0690396428,          !- Vertex 1 Y-coordinate {m}
    16,                      !- Vertex 1 Z-coordinate {m}
    33.5320643908,           !- Vertex 2 X-coordinate {m}
    -54.0690396428,          !- Vertex 2 Y-coordinate {m}
    16,                      !- Vertex 2 Z-coordinate {m}
    33.5320643908,           !- Vertex 3 X-coordinate {m}
    -42.672544402,           !- Vertex 3 Y-coordinate {m}
    16,                      !- Vertex 3 Z-coordinate {m}
    41.9276439732,           !- Vertex 4 X-coordinate {m}
    -42.672544402,           !- Vertex 4 Y-coordinate {m}
    16;                      !- Vertex 4 Z-coordinate {m}

! 3F, BT.R_up, Roof - 95.680 m2, Surface Area: 95.680m2
BuildingSurface:Detailed,
    3F:BTXRXup_Roof_1_0_0,   !- Name
    Roof,                    !- Surface Type
    roof,                    !- Construction Name
    3F:BTXRXup,              !- Zone Name
    ,                        !- Space Name
    Outdoors,                !- Outside Boundary Condition
    ,                        !- Outside Boundary Condition Object
    SunExposed,              !- Sun Exposure
    WindExposed,             !- Wind Exposure
    AutoCalculate,           !- View Factor to Ground
    4,                       !- Number of Vertices
    33.5320643908,           !- Vertex 1 X-coordinate {m}
    -54.0690396428,          !- Vertex 1 Y-coordinate {m}
    24,                      !- Vertex 1 Z-coordinate {m}
    41.9276439732,           !- Vertex 2 X-coordinate {m}
    -54.0690396428,          !- Vertex 2 Y-coordinate {m}
    24,                      !- Vertex 2 Z-coordinate {m}
    41.9276439732,           !- Vertex 3 X-coordinate {m}
    -42.672544402,           !- Vertex 3 Y-coordinate {m}
    24,                      !- Vertex 3 Z-coordinate {m}
    33.5320643908,           !- Vertex 4 X-coordinate {m}
    -42.672544402,           !- Vertex 4 Y-coordinate {m}
    24;                      !- Vertex 4 Z-coordinate {m}

! 3F, BT.R_up, Partition - 91.172 m2  (Adiabatic), Surface Area: 91.172
BuildingSurface:Detailed,
    3F:BTXRXup_Partition_2_0_0,  !- Name
    Wall,                    !- Surface Type
    Project partition,       !- Construction Name
    3F:BTXRXup,              !- Zone Name
    ,                        !- Space Name
    Surface,                 !- Outside Boundary Condition
    3F:BTXRXup_Partition_2_0_0,  !- Outside Boundary Condition Object
    NoSun,                   !- Sun Exposure
    NoWind,                  !- Wind Exposure
    0,                       !- View Factor to Ground
    4,                       !- Number of Vertices
    41.9276439732,           !- Vertex 1 X-coordinate {m}
    -54.06903964,            !- Vertex 1 Y-coordinate {m}
    16,                      !- Vertex 1 Z-coordinate {m}
    41.9276439732,           !- Vertex 2 X-coordinate {m}
    -42.6725444,             !- Vertex 2 Y-coordinate {m}
    16,                      !- Vertex 2 Z-coordinate {m}
    41.9276439732,           !- Vertex 3 X-coordinate {m}
    -42.6725444,             !- Vertex 3 Y-coordinate {m}
    24,                      !- Vertex 3 Z-coordinate {m}
    41.9276439732,           !- Vertex 4 X-coordinate {m}
    -54.06903964,            !- Vertex 4 Y-coordinate {m}
    24;                      !- Vertex 4 Z-coordinate {m}

! 3F, BT.R_up, Partition - 67.165 m2 (3F, E.R_up), Surface Area: 67.1646
BuildingSurface:Detailed,
    3F:BTXRXup_Partition_3_0_0,  !- Name
    Wall,                    !- Surface Type
    Project partition,       !- Construction Name
    3F:BTXRXup,              !- Zone Name
    ,                        !- Space Name
    Surface,                 !- Outside Boundary Condition
    3F:EXRXup_Partition_5_0_10001,  !- Outside Boundary Condition Object
    NoSun,                   !- Sun Exposure
    NoWind,                  !- Wind Exposure
    0,                       !- View Factor to Ground
    4,                       !- Number of Vertices
    41.92764397,             !- Vertex 1 X-coordinate {m}
    -42.672544402,           !- Vertex 1 Y-coordinate {m}
    16,                      !- Vertex 1 Z-coordinate {m}
    33.53206439,             !- Vertex 2 X-coordinate {m}
    -42.672544402,           !- Vertex 2 Y-coordinate {m}
    16,                      !- Vertex 2 Z-coordinate {m}
    33.53206439,             !- Vertex 3 X-coordinate {m}
    -42.672544402,           !- Vertex 3 Y-coordinate {m}
    24,                      !- Vertex 3 Z-coordinate {m}
    41.92764397,             !- Vertex 4 X-coordinate {m}
    -42.672544402,           !- Vertex 4 Y-coordinate {m}
    24;                      !- Vertex 4 Z-coordinate {m}

! 3F, BT.R_up, Partition - 67.165 m2 (3F, E.R_up), Surface Area: 67.1646 <Other side>
BuildingSurface:Detailed,
    3F:EXRXup_Partition_5_0_10001,  !- Name
    Wall,                    !- Surface Type
    Project partition_Rev,   !- Construction Name
    3F:EXRXup,               !- Zone Name
    ,                        !- Space Name
    Surface,                 !- Outside Boundary Condition
    3F:BTXRXup_Partition_3_0_0,  !- Outside Boundary Condition Object
    NoSun,                   !- Sun Exposure
    NoWind,                  !- Wind Exposure
    0,                       !- View Factor to Ground
    4,                       !- Number of Vertices
    33.53206439,             !- Vertex 1 X-coordinate {m}
    -42.672544402,           !- Vertex 1 Y-coordinate {m}
    16,                      !- Vertex 1 Z-coordinate {m}
    41.92764397,             !- Vertex 2 X-coordinate {m}
    -42.672544402,           !- Vertex 2 Y-coordinate {m}
    16,                      !- Vertex 2 Z-coordinate {m}
    41.92764397,             !- Vertex 3 X-coordinate {m}
    -42.672544402,           !- Vertex 3 Y-coordinate {m}
    24,                      !- Vertex 3 Z-coordinate {m}
    33.53206439,             !- Vertex 4 X-coordinate {m}
    -42.672544402,           !- Vertex 4 Y-coordinate {m}
    24;                      !- Vertex 4 Z-coordinate {m}

! 3F, BT.R_up, Partition - 91.172 m2  (Adiabatic), Surface Area: 91.172
BuildingSurface:Detailed,
    3F:BTXRXup_Partition_4_0_0,  !- Name
    Wall,                    !- Surface Type
    Project partition,       !- Construction Name
    3F:BTXRXup,              !- Zone Name
    ,                        !- Space Name
    Surface,                 !- Outside Boundary Condition
    3F:BTXRXup_Partition_4_0_0,  !- Outside Boundary Condition Object
    NoSun,                   !- Sun Exposure
    NoWind,                  !- Wind Exposure
    0,                       !- View Factor to Ground
    4,                       !- Number of Vertices
    33.5320643908,           !- Vertex 1 X-coordinate {m}
    -42.6725444,             !- Vertex 1 Y-coordinate {m}
    16,                      !- Vertex 1 Z-coordinate {m}
    33.5320643908,           !- Vertex 2 X-coordinate {m}
    -54.06903964,            !- Vertex 2 Y-coordinate {m}
    16,                      !- Vertex 2 Z-coordinate {m}
    33.5320643908,           !- Vertex 3 X-coordinate {m}
    -54.06903964,            !- Vertex 3 Y-coordinate {m}
    24,                      !- Vertex 3 Z-coordinate {m}
    33.5320643908,           !- Vertex 4 X-coordinate {m}
    -42.6725444,             !- Vertex 4 Y-coordinate {m}
    24;                      !- Vertex 4 Z-coordinate {m}

! 3F, BT.R_up, Partition - 67.165 m2  (Adiabatic), Surface Area: 67.1646
BuildingSurface:Detailed,
    3F:BTXRXup_Partition_5_0_0,  !- Name
    Wall,                    !- Surface Type
    Project partition,       !- Construction Name
    3F:BTXRXup,              !- Zone Name
    ,                        !- Space Name
    Surface,                 !- Outside Boundary Condition
    3F:BTXRXup_Partition_5_0_0,  !- Outside Boundary Condition Object
    NoSun,                   !- Sun Exposure
    NoWind,                  !- Wind Exposure
    0,                       !- View Factor to Ground
    4,                       !- Number of Vertices
    33.53206439,             !- Vertex 1 X-coordinate {m}
    -54.0690396428,          !- Vertex 1 Y-coordinate {m}
    16,                      !- Vertex 1 Z-coordinate {m}
    41.92764397,             !- Vertex 2 X-coordinate {m}
    -54.0690396428,          !- Vertex 2 Y-coordinate {m}
    16,                      !- Vertex 2 Z-coordinate {m}
    41.92764397,             !- Vertex 3 X-coordinate {m}
    -54.0690396428,          !- Vertex 3 Y-coordinate {m}
    24,                      !- Vertex 3 Z-coordinate {m}
    33.53206439,             !- Vertex 4 X-coordinate {m}
    -54.0690396428,          !- Vertex 4 Y-coordinate {m}
    24;                      !- Vertex 4 Z-coordinate {m}

! 3F, E.R_up, External floor - 159.528 m2, Surface Area: 159.528m2
BuildingSurface:Detailed,
    3F:EXRXup_ExtFloor_0_0_0,!- Name
    Floor,                   !- Surface Type
    floor,                   !- Construction Name
    3F:EXRXup,               !- Zone Name
    ,                        !- Space Name
    Outdoors,                !- Outside Boundary Condition
    ,                        !- Outside Boundary Condition Object
    SunExposed,              !- Sun Exposure
    WindExposed,             !- Wind Exposure
    AutoCalculate,           !- View Factor to Ground
    4,                       !- Number of Vertices
    41.9276439732,           !- Vertex 1 X-coordinate {m}
    -42.672544402,           !- Vertex 1 Y-coordinate {m}
    16,                      !- Vertex 1 Z-coordinate {m}
    33.5320643908,           !- Vertex 2 X-coordinate {m}
    -42.672544402,           !- Vertex 2 Y-coordinate {m}
    16,                      !- Vertex 2 Z-coordinate {m}
    33.5320643908,           !- Vertex 3 X-coordinate {m}
    -23.6711230092,          !- Vertex 3 Y-coordinate {m}
    16,                      !- Vertex 3 Z-coordinate {m}
    41.9276439732,           !- Vertex 4 X-coordinate {m}
    -23.6711230092,          !- Vertex 4 Y-coordinate {m}
    16;                      !- Vertex 4 Z-coordinate {m}

! 3F, E.R_up, Roof - 159.528 m2, Surface Area: 159.528m2
BuildingSurface:Detailed,
    3F:EXRXup_Roof_1_0_0,    !- Name
    Roof,                    !- Surface Type
    roof,                    !- Construction Name
    3F:EXRXup,               !- Zone Name
    ,                        !- Space Name
    Outdoors,                !- Outside Boundary Condition
    ,                        !- Outside Boundary Condition Object
    SunExposed,              !- Sun Exposure
    WindExposed,             !- Wind Exposure
    AutoCalculate,           !- View Factor to Ground
    4,                       !- Number of Vertices
    33.5320643908,           !- Vertex 1 X-coordinate {m}
    -42.672544402,           !- Vertex 1 Y-coordinate {m}
    24,                      !- Vertex 1 Z-coordinate {m}
    41.9276439732,           !- Vertex 2 X-coordinate {m}
    -42.672544402,           !- Vertex 2 Y-coordinate {m}
    24,                      !- Vertex 2 Z-coordinate {m}
    41.9276439732,           !- Vertex 3 X-coordinate {m}
    -23.6711230092,          !- Vertex 3 Y-coordinate {m}
    24,                      !- Vertex 3 Z-coordinate {m}
    33.5320643908,           !- Vertex 4 X-coordinate {m}
    -23.6711230092,          !- Vertex 4 Y-coordinate {m}
    24;                      !- Vertex 4 Z-coordinate {m}

! 3F, E.R_up, Partition - 152.011 m2  (Adiabatic), Surface Area: 152.0114
BuildingSurface:Detailed,
    3F:EXRXup_Partition_2_0_0,  !- Name
    Wall,                    !- Surface Type
    Project partition,       !- Construction Name
    3F:EXRXup,               !- Zone Name
    ,                        !- Space Name
    Surface,                 !- Outside Boundary Condition
    3F:EXRXup_Partition_2_0_0,  !- Outside Boundary Condition Object
    NoSun,                   !- Sun Exposure
    NoWind,                  !- Wind Exposure
    0,                       !- View Factor to Ground
    4,                       !- Number of Vertices
    41.9276439732,           !- Vertex 1 X-coordinate {m}
    -42.6725444,             !- Vertex 1 Y-coordinate {m}
    16,                      !- Vertex 1 Z-coordinate {m}
    41.9276439732,           !- Vertex 2 X-coordinate {m}
    -23.67112301,            !- Vertex 2 Y-coordinate {m}
    16,                      !- Vertex 2 Z-coordinate {m}
    41.9276439732,           !- Vertex 3 X-coordinate {m}
    -23.67112301,            !- Vertex 3 Y-coordinate {m}
    24,                      !- Vertex 3 Z-coordinate {m}
    41.9276439732,           !- Vertex 4 X-coordinate {m}
    -42.6725444,             !- Vertex 4 Y-coordinate {m}
    24;                      !- Vertex 4 Z-coordinate {m}

! 3F, E.R_up, Partition - 67.165 m2 (3F, UPS_up), Surface Area: 67.1646
BuildingSurface:Detailed,
    3F:EXRXup_Partition_3_0_0,  !- Name
    Wall,                    !- Surface Type
    Project partition,       !- Construction Name
    3F:EXRXup,               !- Zone Name
    ,                        !- Space Name
    Surface,                 !- Outside Boundary Condition
    3F:UPSXup_Partition_5_0_10005,  !- Outside Boundary Condition Object
    NoSun,                   !- Sun Exposure
    NoWind,                  !- Wind Exposure
    0,                       !- View Factor to Ground
    4,                       !- Number of Vertices
    41.92764397,             !- Vertex 1 X-coordinate {m}
    -23.6711230092,          !- Vertex 1 Y-coordinate {m}
    16,                      !- Vertex 1 Z-coordinate {m}
    33.53206439,             !- Vertex 2 X-coordinate {m}
    -23.6711230092,          !- Vertex 2 Y-coordinate {m}
    16,                      !- Vertex 2 Z-coordinate {m}
    33.53206439,             !- Vertex 3 X-coordinate {m}
    -23.6711230092,          !- Vertex 3 Y-coordinate {m}
    24,                      !- Vertex 3 Z-coordinate {m}
    41.92764397,             !- Vertex 4 X-coordinate {m}
    -23.6711230092,          !- Vertex 4 Y-coordinate {m}
    24;                      !- Vertex 4 Z-coordinate {m}

! 3F, E.R_up, Partition - 67.165 m2 (3F, UPS_up), Surface Area: 67.1646 <Other side>
BuildingSurface:Detailed,
    3F:UPSXup_Partition_5_0_10005,  !- Name
    Wall,                    !- Surface Type
    Project partition_Rev,   !- Construction Name
    3F:UPSXup,               !- Zone Name
    ,                        !- Space Name
    Surface,                 !- Outside Boundary Condition
    3F:EXRXup_Partition_3_0_0,  !- Outside Boundary Condition Object
    NoSun,                   !- Sun Exposure
    NoWind,                  !- Wind Exposure
    0,                       !- View Factor to Ground
    4,                       !- Number of Vertices
    33.53206439,             !- Vertex 1 X-coordinate {m}
    -23.6711230092,          !- Vertex 1 Y-coordinate {m}
    16,                      !- Vertex 1 Z-coordinate {m}
    41.92764397,             !- Vertex 2 X-coordinate {m}
    -23.6711230092,          !- Vertex 2 Y-coordinate {m}
    16,                      !- Vertex 2 Z-coordinate {m}
    41.92764397,             !- Vertex 3 X-coordinate {m}
    -23.6711230092,          !- Vertex 3 Y-coordinate {m}
    24,                      !- Vertex 3 Z-coordinate {m}
    33.53206439,             !- Vertex 4 X-coordinate {m}
    -23.6711230092,          !- Vertex 4 Y-coordinate {m}
    24;                      !- Vertex 4 Z-coordinate {m}

! 3F, E.R_up, Partition - 152.011 m2  (Adiabatic), Surface Area: 152.0114
BuildingSurface:Detailed,
    3F:EXRXup_Partition_4_0_0,  !- Name
    Wall,                    !- Surface Type
    Project partition,       !- Construction Name
    3F:EXRXup,               !- Zone Name
    ,                        !- Space Name
    Surface,                 !- Outside Boundary Condition
    3F:EXRXup_Partition_4_0_0,  !- Outside Boundary Condition Object
    NoSun,                   !- Sun Exposure
    NoWind,                  !- Wind Exposure
    0,                       !- View Factor to Ground
    4,                       !- Number of Vertices
    33.5320643908,           !- Vertex 1 X-coordinate {m}
    -23.67112301,            !- Vertex 1 Y-coordinate {m}
    16,                      !- Vertex 1 Z-coordinate {m}
    33.5320643908,           !- Vertex 2 X-coordinate {m}
    -42.6725444,             !- Vertex 2 Y-coordinate {m}
    16,                      !- Vertex 2 Z-coordinate {m}
    33.5320643908,           !- Vertex 3 X-coordinate {m}
    -42.6725444,             !- Vertex 3 Y-coordinate {m}
    24,                      !- Vertex 3 Z-coordinate {m}
    33.5320643908,           !- Vertex 4 X-coordinate {m}
    -23.67112301,            !- Vertex 4 Y-coordinate {m}
    24;                      !- Vertex 4 Z-coordinate {m}

! 3F, UPS_up, External floor - 127.602 m2, Surface Area: 127.602m2
BuildingSurface:Detailed,
    3F:UPSXup_ExtFloor_0_0_0,!- Name
    Floor,                   !- Surface Type
    floor,                   !- Construction Name
    3F:UPSXup,               !- Zone Name
    ,                        !- Space Name
    Outdoors,                !- Outside Boundary Condition
    ,                        !- Outside Boundary Condition Object
    SunExposed,              !- Sun Exposure
    WindExposed,             !- Wind Exposure
    AutoCalculate,           !- View Factor to Ground
    4,                       !- Number of Vertices
    41.9276439732,           !- Vertex 1 X-coordinate {m}
    -23.6711230092,          !- Vertex 1 Y-coordinate {m}
    16,                      !- Vertex 1 Z-coordinate {m}
    33.5320643908,           !- Vertex 2 X-coordinate {m}
    -23.6711230092,          !- Vertex 2 Y-coordinate {m}
    16,                      !- Vertex 2 Z-coordinate {m}
    33.5320643908,           !- Vertex 3 X-coordinate {m}
    -8.4724456333,           !- Vertex 3 Y-coordinate {m}
    16,                      !- Vertex 3 Z-coordinate {m}
    41.9276439732,           !- Vertex 4 X-coordinate {m}
    -8.4724456333,           !- Vertex 4 Y-coordinate {m}
    16;                      !- Vertex 4 Z-coordinate {m}

! 3F, UPS_up, Roof - 127.602 m2, Surface Area: 127.602m2
BuildingSurface:Detailed,
    3F:UPSXup_Roof_1_0_0,    !- Name
    Roof,                    !- Surface Type
    roof,                    !- Construction Name
    3F:UPSXup,               !- Zone Name
    ,                        !- Space Name
    Outdoors,                !- Outside Boundary Condition
    ,                        !- Outside Boundary Condition Object
    SunExposed,              !- Sun Exposure
    WindExposed,             !- Wind Exposure
    AutoCalculate,           !- View Factor to Ground
    4,                       !- Number of Vertices
    33.5320643908,           !- Vertex 1 X-coordinate {m}
    -23.6711230092,          !- Vertex 1 Y-coordinate {m}
    24,                      !- Vertex 1 Z-coordinate {m}
    41.9276439732,           !- Vertex 2 X-coordinate {m}
    -23.6711230092,          !- Vertex 2 Y-coordinate {m}
    24,                      !- Vertex 2 Z-coordinate {m}
    41.9276439732,           !- Vertex 3 X-coordinate {m}
    -8.4724456333,           !- Vertex 3 Y-coordinate {m}
    24,                      !- Vertex 3 Z-coordinate {m}
    33.5320643908,           !- Vertex 4 X-coordinate {m}
    -8.4724456333,           !- Vertex 4 Y-coordinate {m}
    24;                      !- Vertex 4 Z-coordinate {m}

! 3F, UPS_up, Partition - 121.589 m2  (Adiabatic), Surface Area: 121.5894
BuildingSurface:Detailed,
    3F:UPSXup_Partition_2_0_0,  !- Name
    Wall,                    !- Surface Type
    Project partition,       !- Construction Name
    3F:UPSXup,               !- Zone Name
    ,                        !- Space Name
    Surface,                 !- Outside Boundary Condition
    3F:UPSXup_Partition_2_0_0,  !- Outside Boundary Condition Object
    NoSun,                   !- Sun Exposure
    NoWind,                  !- Wind Exposure
    0,                       !- View Factor to Ground
    4,                       !- Number of Vertices
    41.9276439732,           !- Vertex 1 X-coordinate {m}
    -23.67112301,            !- Vertex 1 Y-coordinate {m}
    16,                      !- Vertex 1 Z-coordinate {m}
    41.9276439732,           !- Vertex 2 X-coordinate {m}
    -8.47244563,             !- Vertex 2 Y-coordinate {m}
    16,                      !- Vertex 2 Z-coordinate {m}
    41.9276439732,           !- Vertex 3 X-coordinate {m}
    -8.47244563,             !- Vertex 3 Y-coordinate {m}
    24,                      !- Vertex 3 Z-coordinate {m}
    41.9276439732,           !- Vertex 4 X-coordinate {m}
    -23.67112301,            !- Vertex 4 Y-coordinate {m}
    24;                      !- Vertex 4 Z-coordinate {m}

! 3F, UPS_up, Partition - 67.165 m2  (Adiabatic), Surface Area: 67.1646
BuildingSurface:Detailed,
    3F:UPSXup_Partition_3_0_0,  !- Name
    Wall,                    !- Surface Type
    Project partition,       !- Construction Name
    3F:UPSXup,               !- Zone Name
    ,                        !- Space Name
    Surface,                 !- Outside Boundary Condition
    3F:UPSXup_Partition_3_0_0,  !- Outside Boundary Condition Object
    NoSun,                   !- Sun Exposure
    NoWind,                  !- Wind Exposure
    0,                       !- View Factor to Ground
    4,                       !- Number of Vertices
    41.92764397,             !- Vertex 1 X-coordinate {m}
    -8.4724456333,           !- Vertex 1 Y-coordinate {m}
    16,                      !- Vertex 1 Z-coordinate {m}
    33.53206439,             !- Vertex 2 X-coordinate {m}
    -8.4724456333,           !- Vertex 2 Y-coordinate {m}
    16,                      !- Vertex 2 Z-coordinate {m}
    33.53206439,             !- Vertex 3 X-coordinate {m}
    -8.4724456333,           !- Vertex 3 Y-coordinate {m}
    24,                      !- Vertex 3 Z-coordinate {m}
    41.92764397,             !- Vertex 4 X-coordinate {m}
    -8.4724456333,           !- Vertex 4 Y-coordinate {m}
    24;                      !- Vertex 4 Z-coordinate {m}

! 3F, UPS_up, Partition - 121.589 m2  (Adiabatic), Surface Area: 121.5894
BuildingSurface:Detailed,
    3F:UPSXup_Partition_4_0_0,  !- Name
    Wall,                    !- Surface Type
    Project partition,       !- Construction Name
    3F:UPSXup,               !- Zone Name
    ,                        !- Space Name
    Surface,                 !- Outside Boundary Condition
    3F:UPSXup_Partition_4_0_0,  !- Outside Boundary Condition Object
    NoSun,                   !- Sun Exposure
    NoWind,                  !- Wind Exposure
    0,                       !- View Factor to Ground
    4,                       !- Number of Vertices
    33.5320643908,           !- Vertex 1 X-coordinate {m}
    -8.47244563,             !- Vertex 1 Y-coordinate {m}
    16,                      !- Vertex 1 Z-coordinate {m}
    33.5320643908,           !- Vertex 2 X-coordinate {m}
    -23.67112301,            !- Vertex 2 Y-coordinate {m}
    16,                      !- Vertex 2 Z-coordinate {m}
    33.5320643908,           !- Vertex 3 X-coordinate {m}
    -23.67112301,            !- Vertex 3 Y-coordinate {m}
    24,                      !- Vertex 3 Z-coordinate {m}
    33.5320643908,           !- Vertex 4 X-coordinate {m}
    -8.47244563,             !- Vertex 4 Y-coordinate {m}
    24;                      !- Vertex 4 Z-coordinate {m}

! 3F, DC, External floor - 766.080 m2, Surface Area: 766.080m2
BuildingSurface:Detailed,
    3F:DC_ExtFloor_0_0_0,    !- Name
    Floor,                   !- Surface Type
    floor,                   !- Construction Name
    3F:DC,                   !- Zone Name
    ,                        !- Space Name
    Outdoors,                !- Outside Boundary Condition
    ,                        !- Outside Boundary Condition Object
    SunExposed,              !- Sun Exposure
    WindExposed,             !- Wind Exposure
    AutoCalculate,           !- View Factor to Ground
    4,                       !- Number of Vertices
    25.13206439,             !- Vertex 1 X-coordinate {m}
    -54.0710907922,          !- Vertex 1 Y-coordinate {m}
    16,                      !- Vertex 1 Z-coordinate {m}
    8.33206439,              !- Vertex 2 X-coordinate {m}
    -54.0710907922,          !- Vertex 2 Y-coordinate {m}
    16,                      !- Vertex 2 Z-coordinate {m}
    8.33206439,              !- Vertex 3 X-coordinate {m}
    -8.4710907922,           !- Vertex 3 Y-coordinate {m}
    16,                      !- Vertex 3 Z-coordinate {m}
    25.13206439,             !- Vertex 4 X-coordinate {m}
    -8.4710907922,           !- Vertex 4 Y-coordinate {m}
    16;                      !- Vertex 4 Z-coordinate {m}

! 3F, DC, Roof - 766.080 m2, Surface Area: 766.080m2
BuildingSurface:Detailed,
    3F:DC_Roof_1_0_0,        !- Name
    Roof,                    !- Surface Type
    roof,                    !- Construction Name
    3F:DC,                   !- Zone Name
    ,                        !- Space Name
    Outdoors,                !- Outside Boundary Condition
    ,                        !- Outside Boundary Condition Object
    SunExposed,              !- Sun Exposure
    WindExposed,             !- Wind Exposure
    AutoCalculate,           !- View Factor to Ground
    4,                       !- Number of Vertices
    8.33206439,              !- Vertex 1 X-coordinate {m}
    -54.0710907922,          !- Vertex 1 Y-coordinate {m}
    24,                      !- Vertex 1 Z-coordinate {m}
    25.13206439,             !- Vertex 2 X-coordinate {m}
    -54.0710907922,          !- Vertex 2 Y-coordinate {m}
    24,                      !- Vertex 2 Z-coordinate {m}
    25.13206439,             !- Vertex 3 X-coordinate {m}
    -8.4710907922,           !- Vertex 3 Y-coordinate {m}
    24,                      !- Vertex 3 Z-coordinate {m}
    8.33206439,              !- Vertex 4 X-coordinate {m}
    -8.4710907922,           !- Vertex 4 Y-coordinate {m}
    24;                      !- Vertex 4 Z-coordinate {m}

! 3F, DC, Partition - 364.800 m2  (Adiabatic), Surface Area: 364.8
BuildingSurface:Detailed,
    3F:DC_Partition_2_0_0,   !- Name
    Wall,                    !- Surface Type
    Project partition,       !- Construction Name
    3F:DC,                   !- Zone Name
    ,                        !- Space Name
    Surface,                 !- Outside Boundary Condition
    3F:DC_Partition_2_0_0,   !- Outside Boundary Condition Object
    NoSun,                   !- Sun Exposure
    NoWind,                  !- Wind Exposure
    0,                       !- View Factor to Ground
    4,                       !- Number of Vertices
    25.13206439,             !- Vertex 1 X-coordinate {m}
    -54.07109079,            !- Vertex 1 Y-coordinate {m}
    16,                      !- Vertex 1 Z-coordinate {m}
    25.13206439,             !- Vertex 2 X-coordinate {m}
    -8.47109079,             !- Vertex 2 Y-coordinate {m}
    16,                      !- Vertex 2 Z-coordinate {m}
    25.13206439,             !- Vertex 3 X-coordinate {m}
    -8.47109079,             !- Vertex 3 Y-coordinate {m}
    24,                      !- Vertex 3 Z-coordinate {m}
    25.13206439,             !- Vertex 4 X-coordinate {m}
    -54.07109079,            !- Vertex 4 Y-coordinate {m}
    24;                      !- Vertex 4 Z-coordinate {m}

! 3F, DC, Partition - 134.400 m2  (Adiabatic), Surface Area: 134.4
BuildingSurface:Detailed,
    3F:DC_Partition_3_0_0,   !- Name
    Wall,                    !- Surface Type
    Project partition,       !- Construction Name
    3F:DC,                   !- Zone Name
    ,                        !- Space Name
    Surface,                 !- Outside Boundary Condition
    3F:DC_Partition_3_0_0,   !- Outside Boundary Condition Object
    NoSun,                   !- Sun Exposure
    NoWind,                  !- Wind Exposure
    0,                       !- View Factor to Ground
    4,                       !- Number of Vertices
    25.13206439,             !- Vertex 1 X-coordinate {m}
    -8.4710907922,           !- Vertex 1 Y-coordinate {m}
    16,                      !- Vertex 1 Z-coordinate {m}
    8.33206439,              !- Vertex 2 X-coordinate {m}
    -8.4710907922,           !- Vertex 2 Y-coordinate {m}
    16,                      !- Vertex 2 Z-coordinate {m}
    8.33206439,              !- Vertex 3 X-coordinate {m}
    -8.4710907922,           !- Vertex 3 Y-coordinate {m}
    24,                      !- Vertex 3 Z-coordinate {m}
    25.13206439,             !- Vertex 4 X-coordinate {m}
    -8.4710907922,           !- Vertex 4 Y-coordinate {m}
    24;                      !- Vertex 4 Z-coordinate {m}

! 3F, DC, Partition - 121.600 m2 (3F, UPS_down), Surface Area: 121.6003
BuildingSurface:Detailed,
    3F:DC_Partition_4_0_0,   !- Name
    Wall,                    !- Surface Type
    Project partition,       !- Construction Name
    3F:DC,                   !- Zone Name
    ,                        !- Space Name
    Surface,                 !- Outside Boundary Condition
    3F:UPSXdown_Partition_2_0_10012,  !- Outside Boundary Condition Object
    NoSun,                   !- Sun Exposure
    NoWind,                  !- Wind Exposure
    0,                       !- View Factor to Ground
    4,                       !- Number of Vertices
    8.33206439,              !- Vertex 1 X-coordinate {m}
    -8.47109079,             !- Vertex 1 Y-coordinate {m}
    16,                      !- Vertex 1 Z-coordinate {m}
    8.33206439,              !- Vertex 2 X-coordinate {m}
    -23.67112301,            !- Vertex 2 Y-coordinate {m}
    16,                      !- Vertex 2 Z-coordinate {m}
    8.33206439,              !- Vertex 3 X-coordinate {m}
    -23.67112301,            !- Vertex 3 Y-coordinate {m}
    24,                      !- Vertex 3 Z-coordinate {m}
    8.33206439,              !- Vertex 4 X-coordinate {m}
    -8.47109079,             !- Vertex 4 Y-coordinate {m}
    24;                      !- Vertex 4 Z-coordinate {m}

! 3F, DC, Partition - 121.600 m2 (3F, UPS_down), Surface Area: 121.6003 <Other side>
BuildingSurface:Detailed,
    3F:UPSXdown_Partition_2_0_10012,  !- Name
    Wall,                    !- Surface Type
    Project partition_Rev,   !- Construction Name
    3F:UPSXdown,             !- Zone Name
    ,                        !- Space Name
    Surface,                 !- Outside Boundary Condition
    3F:DC_Partition_4_0_0,   !- Outside Boundary Condition Object
    NoSun,                   !- Sun Exposure
    NoWind,                  !- Wind Exposure
    0,                       !- View Factor to Ground
    4,                       !- Number of Vertices
    8.33206439,              !- Vertex 1 X-coordinate {m}
    -23.67112301,            !- Vertex 1 Y-coordinate {m}
    16,                      !- Vertex 1 Z-coordinate {m}
    8.33206439,              !- Vertex 2 X-coordinate {m}
    -8.47109079,             !- Vertex 2 Y-coordinate {m}
    16,                      !- Vertex 2 Z-coordinate {m}
    8.33206439,              !- Vertex 3 X-coordinate {m}
    -8.47109079,             !- Vertex 3 Y-coordinate {m}
    24,                      !- Vertex 3 Z-coordinate {m}
    8.33206439,              !- Vertex 4 X-coordinate {m}
    -23.67112301,            !- Vertex 4 Y-coordinate {m}
    24;                      !- Vertex 4 Z-coordinate {m}

! 3F, DC, Partition - 152.011 m2 (3F, E.R_down), Surface Area: 152.0114
BuildingSurface:Detailed,
    3F:DC_Partition_5_0_0,   !- Name
    Wall,                    !- Surface Type
    Project partition,       !- Construction Name
    3F:DC,                   !- Zone Name
    ,                        !- Space Name
    Surface,                 !- Outside Boundary Condition
    3F:EXRXdown_Partition_2_0_10013,  !- Outside Boundary Condition Object
    NoSun,                   !- Sun Exposure
    NoWind,                  !- Wind Exposure
    0,                       !- View Factor to Ground
    4,                       !- Number of Vertices
    8.33206439,              !- Vertex 1 X-coordinate {m}
    -23.67112301,            !- Vertex 1 Y-coordinate {m}
    16,                      !- Vertex 1 Z-coordinate {m}
    8.33206439,              !- Vertex 2 X-coordinate {m}
    -42.6725444,             !- Vertex 2 Y-coordinate {m}
    16,                      !- Vertex 2 Z-coordinate {m}
    8.33206439,              !- Vertex 3 X-coordinate {m}
    -42.6725444,             !- Vertex 3 Y-coordinate {m}
    24,                      !- Vertex 3 Z-coordinate {m}
    8.33206439,              !- Vertex 4 X-coordinate {m}
    -23.67112301,            !- Vertex 4 Y-coordinate {m}
    24;                      !- Vertex 4 Z-coordinate {m}

! 3F, DC, Partition - 152.011 m2 (3F, E.R_down), Surface Area: 152.0114 <Other side>
BuildingSurface:Detailed,
    3F:EXRXdown_Partition_2_0_10013,  !- Name
    Wall,                    !- Surface Type
    Project partition_Rev,   !- Construction Name
    3F:EXRXdown,             !- Zone Name
    ,                        !- Space Name
    Surface,                 !- Outside Boundary Condition
    3F:DC_Partition_5_0_0,   !- Outside Boundary Condition Object
    NoSun,                   !- Sun Exposure
    NoWind,                  !- Wind Exposure
    0,                       !- View Factor to Ground
    4,                       !- Number of Vertices
    8.33206439,              !- Vertex 1 X-coordinate {m}
    -42.6725444,             !- Vertex 1 Y-coordinate {m}
    16,                      !- Vertex 1 Z-coordinate {m}
    8.33206439,              !- Vertex 2 X-coordinate {m}
    -23.67112301,            !- Vertex 2 Y-coordinate {m}
    16,                      !- Vertex 2 Z-coordinate {m}
    8.33206439,              !- Vertex 3 X-coordinate {m}
    -23.67112301,            !- Vertex 3 Y-coordinate {m}
    24,                      !- Vertex 3 Z-coordinate {m}
    8.33206439,              !- Vertex 4 X-coordinate {m}
    -42.6725444,             !- Vertex 4 Y-coordinate {m}
    24;                      !- Vertex 4 Z-coordinate {m}

! 3F, DC, Partition - 91.188 m2 (3F, BT.R_down), Surface Area: 91.1884
BuildingSurface:Detailed,
    3F:DC_Partition_6_0_0,   !- Name
    Wall,                    !- Surface Type
    Project partition_Rev,   !- Construction Name
    3F:DC,                   !- Zone Name
    ,                        !- Space Name
    Surface,                 !- Outside Boundary Condition
    3F:BTXRXdown_Partition_2_0_10014,  !- Outside Boundary Condition Object
    NoSun,                   !- Sun Exposure
    NoWind,                  !- Wind Exposure
    0,                       !- View Factor to Ground
    4,                       !- Number of Vertices
    8.33206439,              !- Vertex 1 X-coordinate {m}
    -42.6725444,             !- Vertex 1 Y-coordinate {m}
    16,                      !- Vertex 1 Z-coordinate {m}
    8.33206439,              !- Vertex 2 X-coordinate {m}
    -54.07109079,            !- Vertex 2 Y-coordinate {m}
    16,                      !- Vertex 2 Z-coordinate {m}
    8.33206439,              !- Vertex 3 X-coordinate {m}
    -54.07109079,            !- Vertex 3 Y-coordinate {m}
    24,                      !- Vertex 3 Z-coordinate {m}
    8.33206439,              !- Vertex 4 X-coordinate {m}
    -42.6725444,             !- Vertex 4 Y-coordinate {m}
    24;                      !- Vertex 4 Z-coordinate {m}

! 3F, DC, Partition - 91.188 m2 (3F, BT.R_down), Surface Area: 91.1884 <Other side>
BuildingSurface:Detailed,
    3F:BTXRXdown_Partition_2_0_10014,  !- Name
    Wall,                    !- Surface Type
    Project partition,       !- Construction Name
    3F:BTXRXdown,            !- Zone Name
    ,                        !- Space Name
    Surface,                 !- Outside Boundary Condition
    3F:DC_Partition_6_0_0,   !- Outside Boundary Condition Object
    NoSun,                   !- Sun Exposure
    NoWind,                  !- Wind Exposure
    0,                       !- View Factor to Ground
    4,                       !- Number of Vertices
    8.33206439,              !- Vertex 1 X-coordinate {m}
    -54.07109079,            !- Vertex 1 Y-coordinate {m}
    16,                      !- Vertex 1 Z-coordinate {m}
    8.33206439,              !- Vertex 2 X-coordinate {m}
    -42.6725444,             !- Vertex 2 Y-coordinate {m}
    16,                      !- Vertex 2 Z-coordinate {m}
    8.33206439,              !- Vertex 3 X-coordinate {m}
    -42.6725444,             !- Vertex 3 Y-coordinate {m}
    24,                      !- Vertex 3 Z-coordinate {m}
    8.33206439,              !- Vertex 4 X-coordinate {m}
    -54.07109079,            !- Vertex 4 Y-coordinate {m}
    24;                      !- Vertex 4 Z-coordinate {m}

! 3F, DC, Partition - 134.400 m2  (Adiabatic), Surface Area: 134.4
BuildingSurface:Detailed,
    3F:DC_Partition_7_0_0,   !- Name
    Wall,                    !- Surface Type
    Project partition,       !- Construction Name
    3F:DC,                   !- Zone Name
    ,                        !- Space Name
    Surface,                 !- Outside Boundary Condition
    3F:DC_Partition_7_0_0,   !- Outside Boundary Condition Object
    NoSun,                   !- Sun Exposure
    NoWind,                  !- Wind Exposure
    0,                       !- View Factor to Ground
    4,                       !- Number of Vertices
    8.33206439,              !- Vertex 1 X-coordinate {m}
    -54.0710907922,          !- Vertex 1 Y-coordinate {m}
    16,                      !- Vertex 1 Z-coordinate {m}
    25.13206439,             !- Vertex 2 X-coordinate {m}
    -54.0710907922,          !- Vertex 2 Y-coordinate {m}
    16,                      !- Vertex 2 Z-coordinate {m}
    25.13206439,             !- Vertex 3 X-coordinate {m}
    -54.0710907922,          !- Vertex 3 Y-coordinate {m}
    24,                      !- Vertex 3 Z-coordinate {m}
    8.33206439,              !- Vertex 4 X-coordinate {m}
    -54.0710907922,          !- Vertex 4 Y-coordinate {m}
    24;                      !- Vertex 4 Z-coordinate {m}

! 3F, UPS_down, External floor - 91.173 m2, Surface Area: 91.173m2
BuildingSurface:Detailed,
    3F:UPSXdown_ExtFloor_0_0_0,  !- Name
    Floor,                   !- Surface Type
    floor,                   !- Construction Name
    3F:UPSXdown,             !- Zone Name
    ,                        !- Space Name
    Outdoors,                !- Outside Boundary Condition
    ,                        !- Outside Boundary Condition Object
    SunExposed,              !- Sun Exposure
    WindExposed,             !- Wind Exposure
    AutoCalculate,           !- View Factor to Ground
    4,                       !- Number of Vertices
    8.33206439,              !- Vertex 1 X-coordinate {m}
    -23.6711230092,          !- Vertex 1 Y-coordinate {m}
    16,                      !- Vertex 1 Z-coordinate {m}
    2.3338451889,            !- Vertex 2 X-coordinate {m}
    -23.6711230092,          !- Vertex 2 Y-coordinate {m}
    16,                      !- Vertex 2 Z-coordinate {m}
    2.3338451888,            !- Vertex 3 X-coordinate {m}
    -8.4710907922,           !- Vertex 3 Y-coordinate {m}
    16,                      !- Vertex 3 Z-coordinate {m}
    8.33206439,              !- Vertex 4 X-coordinate {m}
    -8.4710907922,           !- Vertex 4 Y-coordinate {m}
    16;                      !- Vertex 4 Z-coordinate {m}

! 3F, UPS_down, Roof - 91.173 m2, Surface Area: 91.173m2
BuildingSurface:Detailed,
    3F:UPSXdown_Roof_1_0_0,  !- Name
    Roof,                    !- Surface Type
    roof,                    !- Construction Name
    3F:UPSXdown,             !- Zone Name
    ,                        !- Space Name
    Outdoors,                !- Outside Boundary Condition
    ,                        !- Outside Boundary Condition Object
    SunExposed,              !- Sun Exposure
    WindExposed,             !- Wind Exposure
    AutoCalculate,           !- View Factor to Ground
    4,                       !- Number of Vertices
    2.3338451889,            !- Vertex 1 X-coordinate {m}
    -23.6711230092,          !- Vertex 1 Y-coordinate {m}
    24,                      !- Vertex 1 Z-coordinate {m}
    8.33206439,              !- Vertex 2 X-coordinate {m}
    -23.6711230092,          !- Vertex 2 Y-coordinate {m}
    24,                      !- Vertex 2 Z-coordinate {m}
    8.33206439,              !- Vertex 3 X-coordinate {m}
    -8.4710907922,           !- Vertex 3 Y-coordinate {m}
    24,                      !- Vertex 3 Z-coordinate {m}
    2.3338451888,            !- Vertex 4 X-coordinate {m}
    -8.4710907922,           !- Vertex 4 Y-coordinate {m}
    24;                      !- Vertex 4 Z-coordinate {m}

! 3F, UPS_down, Partition - 47.986 m2  (Adiabatic), Surface Area: 47.9858
BuildingSurface:Detailed,
    3F:UPSXdown_Partition_3_0_0,  !- Name
    Wall,                    !- Surface Type
    Project partition,       !- Construction Name
    3F:UPSXdown,             !- Zone Name
    ,                        !- Space Name
    Surface,                 !- Outside Boundary Condition
    3F:UPSXdown_Partition_3_0_0,  !- Outside Boundary Condition Object
    NoSun,                   !- Sun Exposure
    NoWind,                  !- Wind Exposure
    0,                       !- View Factor to Ground
    4,                       !- Number of Vertices
    8.33206439,              !- Vertex 1 X-coordinate {m}
    -8.4710907922,           !- Vertex 1 Y-coordinate {m}
    16,                      !- Vertex 1 Z-coordinate {m}
    2.33384519,              !- Vertex 2 X-coordinate {m}
    -8.4710907922,           !- Vertex 2 Y-coordinate {m}
    16,                      !- Vertex 2 Z-coordinate {m}
    2.33384519,              !- Vertex 3 X-coordinate {m}
    -8.4710907922,           !- Vertex 3 Y-coordinate {m}
    24,                      !- Vertex 3 Z-coordinate {m}
    8.33206439,              !- Vertex 4 X-coordinate {m}
    -8.4710907922,           !- Vertex 4 Y-coordinate {m}
    24;                      !- Vertex 4 Z-coordinate {m}

! 3F, UPS_down, Partition - 121.600 m2  (Adiabatic), Surface Area: 121.6003
BuildingSurface:Detailed,
    3F:UPSXdown_Partition_4_0_0,  !- Name
    Wall,                    !- Surface Type
    Project partition,       !- Construction Name
    3F:UPSXdown,             !- Zone Name
    ,                        !- Space Name
    Surface,                 !- Outside Boundary Condition
    3F:UPSXdown_Partition_4_0_0,  !- Outside Boundary Condition Object
    NoSun,                   !- Sun Exposure
    NoWind,                  !- Wind Exposure
    0,                       !- View Factor to Ground
    4,                       !- Number of Vertices
    2.3338451889,            !- Vertex 1 X-coordinate {m}
    -8.47109079,             !- Vertex 1 Y-coordinate {m}
    16,                      !- Vertex 1 Z-coordinate {m}
    2.3338451889,            !- Vertex 2 X-coordinate {m}
    -23.67112301,            !- Vertex 2 Y-coordinate {m}
    16,                      !- Vertex 2 Z-coordinate {m}
    2.3338451889,            !- Vertex 3 X-coordinate {m}
    -23.67112301,            !- Vertex 3 Y-coordinate {m}
    24,                      !- Vertex 3 Z-coordinate {m}
    2.3338451889,            !- Vertex 4 X-coordinate {m}
    -8.47109079,             !- Vertex 4 Y-coordinate {m}
    24;                      !- Vertex 4 Z-coordinate {m}

! 3F, UPS_down, Partition - 47.986 m2 (3F, E.R_down), Surface Area: 47.9858
BuildingSurface:Detailed,
    3F:UPSXdown_Partition_5_0_0,  !- Name
    Wall,                    !- Surface Type
    Project partition,       !- Construction Name
    3F:UPSXdown,             !- Zone Name
    ,                        !- Space Name
    Surface,                 !- Outside Boundary Condition
    3F:EXRXdown_Partition_3_0_10018,  !- Outside Boundary Condition Object
    NoSun,                   !- Sun Exposure
    NoWind,                  !- Wind Exposure
    0,                       !- View Factor to Ground
    4,                       !- Number of Vertices
    2.33384519,              !- Vertex 1 X-coordinate {m}
    -23.6711230092,          !- Vertex 1 Y-coordinate {m}
    16,                      !- Vertex 1 Z-coordinate {m}
    8.33206439,              !- Vertex 2 X-coordinate {m}
    -23.6711230092,          !- Vertex 2 Y-coordinate {m}
    16,                      !- Vertex 2 Z-coordinate {m}
    8.33206439,              !- Vertex 3 X-coordinate {m}
    -23.6711230092,          !- Vertex 3 Y-coordinate {m}
    24,                      !- Vertex 3 Z-coordinate {m}
    2.33384519,              !- Vertex 4 X-coordinate {m}
    -23.6711230092,          !- Vertex 4 Y-coordinate {m}
    24;                      !- Vertex 4 Z-coordinate {m}

! 3F, UPS_down, Partition - 47.986 m2 (3F, E.R_down), Surface Area: 47.9858 <Other side>
BuildingSurface:Detailed,
    3F:EXRXdown_Partition_3_0_10018,  !- Name
    Wall,                    !- Surface Type
    Project partition_Rev,   !- Construction Name
    3F:EXRXdown,             !- Zone Name
    ,                        !- Space Name
    Surface,                 !- Outside Boundary Condition
    3F:UPSXdown_Partition_5_0_0,  !- Outside Boundary Condition Object
    NoSun,                   !- Sun Exposure
    NoWind,                  !- Wind Exposure
    0,                       !- View Factor to Ground
    4,                       !- Number of Vertices
    8.33206439,              !- Vertex 1 X-coordinate {m}
    -23.6711230092,          !- Vertex 1 Y-coordinate {m}
    16,                      !- Vertex 1 Z-coordinate {m}
    2.33384519,              !- Vertex 2 X-coordinate {m}
    -23.6711230092,          !- Vertex 2 Y-coordinate {m}
    16,                      !- Vertex 2 Z-coordinate {m}
    2.33384519,              !- Vertex 3 X-coordinate {m}
    -23.6711230092,          !- Vertex 3 Y-coordinate {m}
    24,                      !- Vertex 3 Z-coordinate {m}
    8.33206439,              !- Vertex 4 X-coordinate {m}
    -23.6711230092,          !- Vertex 4 Y-coordinate {m}
    24;                      !- Vertex 4 Z-coordinate {m}

! 3F, E.R_down, External floor - 113.975 m2, Surface Area: 113.975m2
BuildingSurface:Detailed,
    3F:EXRXdown_ExtFloor_0_0_0,  !- Name
    Floor,                   !- Surface Type
    floor,                   !- Construction Name
    3F:EXRXdown,             !- Zone Name
    ,                        !- Space Name
    Outdoors,                !- Outside Boundary Condition
    ,                        !- Outside Boundary Condition Object
    SunExposed,              !- Sun Exposure
    WindExposed,             !- Wind Exposure
    AutoCalculate,           !- View Factor to Ground
    4,                       !- Number of Vertices
    8.33206439,              !- Vertex 1 X-coordinate {m}
    -42.672544402,           !- Vertex 1 Y-coordinate {m}
    16,                      !- Vertex 1 Z-coordinate {m}
    2.3338451891,            !- Vertex 2 X-coordinate {m}
    -42.672544402,           !- Vertex 2 Y-coordinate {m}
    16,                      !- Vertex 2 Z-coordinate {m}
    2.3338451889,            !- Vertex 3 X-coordinate {m}
    -23.6711230092,          !- Vertex 3 Y-coordinate {m}
    16,                      !- Vertex 3 Z-coordinate {m}
    8.33206439,              !- Vertex 4 X-coordinate {m}
    -23.6711230092,          !- Vertex 4 Y-coordinate {m}
    16;                      !- Vertex 4 Z-coordinate {m}

! 3F, E.R_down, Roof - 113.975 m2, Surface Area: 113.975m2
BuildingSurface:Detailed,
    3F:EXRXdown_Roof_1_0_0,  !- Name
    Roof,                    !- Surface Type
    roof,                    !- Construction Name
    3F:EXRXdown,             !- Zone Name
    ,                        !- Space Name
    Outdoors,                !- Outside Boundary Condition
    ,                        !- Outside Boundary Condition Object
    SunExposed,              !- Sun Exposure
    WindExposed,             !- Wind Exposure
    AutoCalculate,           !- View Factor to Ground
    4,                       !- Number of Vertices
    2.3338451891,            !- Vertex 1 X-coordinate {m}
    -42.672544402,           !- Vertex 1 Y-coordinate {m}
    24,                      !- Vertex 1 Z-coordinate {m}
    8.33206439,              !- Vertex 2 X-coordinate {m}
    -42.672544402,           !- Vertex 2 Y-coordinate {m}
    24,                      !- Vertex 2 Z-coordinate {m}
    8.33206439,              !- Vertex 3 X-coordinate {m}
    -23.6711230092,          !- Vertex 3 Y-coordinate {m}
    24,                      !- Vertex 3 Z-coordinate {m}
    2.3338451889,            !- Vertex 4 X-coordinate {m}
    -23.6711230092,          !- Vertex 4 Y-coordinate {m}
    24;                      !- Vertex 4 Z-coordinate {m}

! 3F, E.R_down, Partition - 152.011 m2  (Adiabatic), Surface Area: 152.0114
BuildingSurface:Detailed,
    3F:EXRXdown_Partition_4_0_0,  !- Name
    Wall,                    !- Surface Type
    Project partition,       !- Construction Name
    3F:EXRXdown,             !- Zone Name
    ,                        !- Space Name
    Surface,                 !- Outside Boundary Condition
    3F:EXRXdown_Partition_4_0_0,  !- Outside Boundary Condition Object
    NoSun,                   !- Sun Exposure
    NoWind,                  !- Wind Exposure
    0,                       !- View Factor to Ground
    4,                       !- Number of Vertices
    2.333845189,             !- Vertex 1 X-coordinate {m}
    -23.67112301,            !- Vertex 1 Y-coordinate {m}
    16,                      !- Vertex 1 Z-coordinate {m}
    2.333845189,             !- Vertex 2 X-coordinate {m}
    -42.6725444,             !- Vertex 2 Y-coordinate {m}
    16,                      !- Vertex 2 Z-coordinate {m}
    2.333845189,             !- Vertex 3 X-coordinate {m}
    -42.6725444,             !- Vertex 3 Y-coordinate {m}
    24,                      !- Vertex 3 Z-coordinate {m}
    2.333845189,             !- Vertex 4 X-coordinate {m}
    -23.67112301,            !- Vertex 4 Y-coordinate {m}
    24;                      !- Vertex 4 Z-coordinate {m}

! 3F, E.R_down, Partition - 47.986 m2 (3F, BT.R_down), Surface Area: 47.9858
BuildingSurface:Detailed,
    3F:EXRXdown_Partition_5_0_0,  !- Name
    Wall,                    !- Surface Type
    Project partition_Rev,   !- Construction Name
    3F:EXRXdown,             !- Zone Name
    ,                        !- Space Name
    Surface,                 !- Outside Boundary Condition
    3F:BTXRXdown_Partition_3_0_10020,  !- Outside Boundary Condition Object
    NoSun,                   !- Sun Exposure
    NoWind,                  !- Wind Exposure
    0,                       !- View Factor to Ground
    4,                       !- Number of Vertices
    2.33384519,              !- Vertex 1 X-coordinate {m}
    -42.672544402,           !- Vertex 1 Y-coordinate {m}
    16,                      !- Vertex 1 Z-coordinate {m}
    8.33206439,              !- Vertex 2 X-coordinate {m}
    -42.672544402,           !- Vertex 2 Y-coordinate {m}
    16,                      !- Vertex 2 Z-coordinate {m}
    8.33206439,              !- Vertex 3 X-coordinate {m}
    -42.672544402,           !- Vertex 3 Y-coordinate {m}
    24,                      !- Vertex 3 Z-coordinate {m}
    2.33384519,              !- Vertex 4 X-coordinate {m}
    -42.672544402,           !- Vertex 4 Y-coordinate {m}
    24;                      !- Vertex 4 Z-coordinate {m}

! 3F, E.R_down, Partition - 47.986 m2 (3F, BT.R_down), Surface Area: 47.9858 <Other side>
BuildingSurface:Detailed,
    3F:BTXRXdown_Partition_3_0_10020,  !- Name
    Wall,                    !- Surface Type
    Project partition,       !- Construction Name
    3F:BTXRXdown,            !- Zone Name
    ,                        !- Space Name
    Surface,                 !- Outside Boundary Condition
    3F:EXRXdown_Partition_5_0_0,  !- Outside Boundary Condition Object
    NoSun,                   !- Sun Exposure
    NoWind,                  !- Wind Exposure
    0,                       !- View Factor to Ground
    4,                       !- Number of Vertices
    8.33206439,              !- Vertex 1 X-coordinate {m}
    -42.672544402,           !- Vertex 1 Y-coordinate {m}
    16,                      !- Vertex 1 Z-coordinate {m}
    2.33384519,              !- Vertex 2 X-coordinate {m}
    -42.672544402,           !- Vertex 2 Y-coordinate {m}
    16,                      !- Vertex 2 Z-coordinate {m}
    2.33384519,              !- Vertex 3 X-coordinate {m}
    -42.672544402,           !- Vertex 3 Y-coordinate {m}
    24,                      !- Vertex 3 Z-coordinate {m}
    8.33206439,              !- Vertex 4 X-coordinate {m}
    -42.672544402,           !- Vertex 4 Y-coordinate {m}
    24;                      !- Vertex 4 Z-coordinate {m}

! 3F, BT.R_down, External floor - 68.371 m2, Surface Area: 68.371m2
BuildingSurface:Detailed,
    3F:BTXRXdown_ExtFloor_0_0_0,  !- Name
    Floor,                   !- Surface Type
    floor,                   !- Construction Name
    3F:BTXRXdown,            !- Zone Name
    ,                        !- Space Name
    Outdoors,                !- Outside Boundary Condition
    ,                        !- Outside Boundary Condition Object
    SunExposed,              !- Sun Exposure
    WindExposed,             !- Wind Exposure
    AutoCalculate,           !- View Factor to Ground
    4,                       !- Number of Vertices
    8.33206439,              !- Vertex 1 X-coordinate {m}
    -54.0710907922,          !- Vertex 1 Y-coordinate {m}
    16,                      !- Vertex 1 Z-coordinate {m}
    2.3338451892,            !- Vertex 2 X-coordinate {m}
    -54.0710907922,          !- Vertex 2 Y-coordinate {m}
    16,                      !- Vertex 2 Z-coordinate {m}
    2.3338451891,            !- Vertex 3 X-coordinate {m}
    -42.672544402,           !- Vertex 3 Y-coordinate {m}
    16,                      !- Vertex 3 Z-coordinate {m}
    8.33206439,              !- Vertex 4 X-coordinate {m}
    -42.672544402,           !- Vertex 4 Y-coordinate {m}
    16;                      !- Vertex 4 Z-coordinate {m}

! 3F, BT.R_down, Roof - 68.371 m2, Surface Area: 68.371m2
BuildingSurface:Detailed,
    3F:BTXRXdown_Roof_1_0_0, !- Name
    Roof,                    !- Surface Type
    roof,                    !- Construction Name
    3F:BTXRXdown,            !- Zone Name
    ,                        !- Space Name
    Outdoors,                !- Outside Boundary Condition
    ,                        !- Outside Boundary Condition Object
    SunExposed,              !- Sun Exposure
    WindExposed,             !- Wind Exposure
    AutoCalculate,           !- View Factor to Ground
    4,                       !- Number of Vertices
    2.3338451892,            !- Vertex 1 X-coordinate {m}
    -54.0710907922,          !- Vertex 1 Y-coordinate {m}
    24,                      !- Vertex 1 Z-coordinate {m}
    8.33206439,              !- Vertex 2 X-coordinate {m}
    -54.0710907922,          !- Vertex 2 Y-coordinate {m}
    24,                      !- Vertex 2 Z-coordinate {m}
    8.33206439,              !- Vertex 3 X-coordinate {m}
    -42.672544402,           !- Vertex 3 Y-coordinate {m}
    24,                      !- Vertex 3 Z-coordinate {m}
    2.3338451891,            !- Vertex 4 X-coordinate {m}
    -42.672544402,           !- Vertex 4 Y-coordinate {m}
    24;                      !- Vertex 4 Z-coordinate {m}

! 3F, BT.R_down, Partition - 91.188 m2  (Adiabatic), Surface Area: 91.1884
BuildingSurface:Detailed,
    3F:BTXRXdown_Partition_4_0_0,  !- Name
    Wall,                    !- Surface Type
    Project partition,       !- Construction Name
    3F:BTXRXdown,            !- Zone Name
    ,                        !- Space Name
    Surface,                 !- Outside Boundary Condition
    3F:BTXRXdown_Partition_4_0_0,  !- Outside Boundary Condition Object
    NoSun,                   !- Sun Exposure
    NoWind,                  !- Wind Exposure
    0,                       !- View Factor to Ground
    4,                       !- Number of Vertices
    2.3338451891,            !- Vertex 1 X-coordinate {m}
    -42.6725444,             !- Vertex 1 Y-coordinate {m}
    16,                      !- Vertex 1 Z-coordinate {m}
    2.3338451891,            !- Vertex 2 X-coordinate {m}
    -54.07109079,            !- Vertex 2 Y-coordinate {m}
    16,                      !- Vertex 2 Z-coordinate {m}
    2.3338451891,            !- Vertex 3 X-coordinate {m}
    -54.07109079,            !- Vertex 3 Y-coordinate {m}
    24,                      !- Vertex 3 Z-coordinate {m}
    2.3338451891,            !- Vertex 4 X-coordinate {m}
    -42.6725444,             !- Vertex 4 Y-coordinate {m}
    24;                      !- Vertex 4 Z-coordinate {m}

! 3F, BT.R_down, Partition - 47.986 m2  (Adiabatic), Surface Area: 47.9858
BuildingSurface:Detailed,
    3F:BTXRXdown_Partition_5_0_0,  !- Name
    Wall,                    !- Surface Type
    Project partition,       !- Construction Name
    3F:BTXRXdown,            !- Zone Name
    ,                        !- Space Name
    Surface,                 !- Outside Boundary Condition
    3F:BTXRXdown_Partition_5_0_0,  !- Outside Boundary Condition Object
    NoSun,                   !- Sun Exposure
    NoWind,                  !- Wind Exposure
    0,                       !- View Factor to Ground
    4,                       !- Number of Vertices
    2.33384519,              !- Vertex 1 X-coordinate {m}
    -54.0710907922,          !- Vertex 1 Y-coordinate {m}
    16,                      !- Vertex 1 Z-coordinate {m}
    8.33206439,              !- Vertex 2 X-coordinate {m}
    -54.0710907922,          !- Vertex 2 Y-coordinate {m}
    16,                      !- Vertex 2 Z-coordinate {m}
    8.33206439,              !- Vertex 3 X-coordinate {m}
    -54.0710907922,          !- Vertex 3 Y-coordinate {m}
    24,                      !- Vertex 3 Z-coordinate {m}
    2.33384519,              !- Vertex 4 X-coordinate {m}
    -54.0710907922,          !- Vertex 4 Y-coordinate {m}
    24;                      !- Vertex 4 Z-coordinate {m}


!-   ===========  ALL OBJECTS IN CLASS: SHADING:BUILDING:DETAILED ===========

Shading:Building:Detailed,
    Ext1,                    !- Name
    ,                        !- Transmittance Schedule Name
    4,                       !- Number of Vertices
    25.13206439,             !- Vertex 1 X-coordinate {m}
    -54.07109079,            !- Vertex 1 Y-coordinate {m}
    24,                      !- Vertex 1 Z-coordinate {m}
    33.53206439,             !- Vertex 2 X-coordinate {m}
    -54.07109079,            !- Vertex 2 Y-coordinate {m}
    24,                      !- Vertex 2 Z-coordinate {m}
    33.53206439,             !- Vertex 3 X-coordinate {m}
    -31.27099079,            !- Vertex 3 Y-coordinate {m}
    24,                      !- Vertex 3 Z-coordinate {m}
    25.13206439,             !- Vertex 4 X-coordinate {m}
    -31.27099079,            !- Vertex 4 Y-coordinate {m}
    24;                      !- Vertex 4 Z-coordinate {m}

Shading:Building:Detailed,
    Ext2,                    !- Name
    ,                        !- Transmittance Schedule Name
    4,                       !- Number of Vertices
    2.33384519,              !- Vertex 1 X-coordinate {m}
    -62.47244563,            !- Vertex 1 Y-coordinate {m}
    24,                      !- Vertex 1 Z-coordinate {m}
    33.53206439,             !- Vertex 2 X-coordinate {m}
    -62.47244563,            !- Vertex 2 Y-coordinate {m}
    24,                      !- Vertex 2 Z-coordinate {m}
    33.53206439,             !- Vertex 3 X-coordinate {m}
    -54.07109079,            !- Vertex 3 Y-coordinate {m}
    24,                      !- Vertex 3 Z-coordinate {m}
    2.33384519,              !- Vertex 4 X-coordinate {m}
    -54.07109079,            !- Vertex 4 Y-coordinate {m}
    24;                      !- Vertex 4 Z-coordinate {m}

Shading:Building:Detailed,
    Ext3,                    !- Name
    ,                        !- Transmittance Schedule Name
    4,                       !- Number of Vertices
    -.07053406,              !- Vertex 1 X-coordinate {m}
    -62.47244563,            !- Vertex 1 Y-coordinate {m}
    24,                      !- Vertex 1 Z-coordinate {m}
    2.33384519,              !- Vertex 2 X-coordinate {m}
    -62.47244563,            !- Vertex 2 Y-coordinate {m}
    24,                      !- Vertex 2 Z-coordinate {m}
    2.33384519,              !- Vertex 3 X-coordinate {m}
    -31.27099079,            !- Vertex 3 Y-coordinate {m}
    24,                      !- Vertex 3 Z-coordinate {m}
    -.07053406,              !- Vertex 4 X-coordinate {m}
    -31.27099079,            !- Vertex 4 Y-coordinate {m}
    24;                      !- Vertex 4 Z-coordinate {m}

Shading:Building:Detailed,
    Ext4,                    !- Name
    ,                        !- Transmittance Schedule Name
    4,                       !- Number of Vertices
    -.07053406,              !- Vertex 1 X-coordinate {m}
    -31.27099079,            !- Vertex 1 Y-coordinate {m}
    24,                      !- Vertex 1 Z-coordinate {m}
    2.33384519,              !- Vertex 2 X-coordinate {m}
    -31.27099079,            !- Vertex 2 Y-coordinate {m}
    24,                      !- Vertex 2 Z-coordinate {m}
    2.33384519,              !- Vertex 3 X-coordinate {m}
    -8.47109079,             !- Vertex 3 Y-coordinate {m}
    24,                      !- Vertex 3 Z-coordinate {m}
    -.07053406,              !- Vertex 4 X-coordinate {m}
    -8.47109079,             !- Vertex 4 Y-coordinate {m}
    24;                      !- Vertex 4 Z-coordinate {m}

Shading:Building:Detailed,
    Ext5,                    !- Name
    ,                        !- Transmittance Schedule Name
    4,                       !- Number of Vertices
    -.07053406,              !- Vertex 1 X-coordinate {m}
    -8.47109079,             !- Vertex 1 Y-coordinate {m}
    24,                      !- Vertex 1 Z-coordinate {m}
    25.13206439,             !- Vertex 2 X-coordinate {m}
    -8.47109079,             !- Vertex 2 Y-coordinate {m}
    24,                      !- Vertex 2 Z-coordinate {m}
    25.13206439,             !- Vertex 3 X-coordinate {m}
    -.07244563,              !- Vertex 3 Y-coordinate {m}
    24,                      !- Vertex 3 Z-coordinate {m}
    -.07053406,              !- Vertex 4 X-coordinate {m}
    -.07244563,              !- Vertex 4 Y-coordinate {m}
    24;                      !- Vertex 4 Z-coordinate {m}

Shading:Building:Detailed,
    Ext6,                    !- Name
    ,                        !- Transmittance Schedule Name
    4,                       !- Number of Vertices
    25.13206439,             !- Vertex 1 X-coordinate {m}
    -31.27099079,            !- Vertex 1 Y-coordinate {m}
    24,                      !- Vertex 1 Z-coordinate {m}
    33.53206439,             !- Vertex 2 X-coordinate {m}
    -31.27099079,            !- Vertex 2 Y-coordinate {m}
    24,                      !- Vertex 2 Z-coordinate {m}
    33.53206439,             !- Vertex 3 X-coordinate {m}
    -.07244563,              !- Vertex 3 Y-coordinate {m}
    24,                      !- Vertex 3 Z-coordinate {m}
    25.13206439,             !- Vertex 4 X-coordinate {m}
    -.07244563,              !- Vertex 4 Y-coordinate {m}
    24;                      !- Vertex 4 Z-coordinate {m}

Shading:Building:Detailed,
    Ext7,                    !- Name
    ,                        !- Transmittance Schedule Name
    4,                       !- Number of Vertices
    33.5320643908,           !- Vertex 1 X-coordinate {m}
    -.0724456333,            !- Vertex 1 Y-coordinate {m}
    16,                      !- Vertex 1 Z-coordinate {m}
    -.0705340641,            !- Vertex 2 X-coordinate {m}
    -.0724456333,            !- Vertex 2 Y-coordinate {m}
    16,                      !- Vertex 2 Z-coordinate {m}
    -.0705340641,            !- Vertex 3 X-coordinate {m}
    -.0724456333,            !- Vertex 3 Y-coordinate {m}
    24,                      !- Vertex 3 Z-coordinate {m}
    33.5320643908,           !- Vertex 4 X-coordinate {m}
    -.0724456333,            !- Vertex 4 Y-coordinate {m}
    24;                      !- Vertex 4 Z-coordinate {m}

Shading:Building:Detailed,
    Ext8,                    !- Name
    ,                        !- Transmittance Schedule Name
    4,                       !- Number of Vertices
    -.0705340641,            !- Vertex 1 X-coordinate {m}
    -.0724456333,            !- Vertex 1 Y-coordinate {m}
    16,                      !- Vertex 1 Z-coordinate {m}
    -.0705340641,            !- Vertex 2 X-coordinate {m}
    -62.4724456333,          !- Vertex 2 Y-coordinate {m}
    16,                      !- Vertex 2 Z-coordinate {m}
    -.0705340641,            !- Vertex 3 X-coordinate {m}
    -62.4724456333,          !- Vertex 3 Y-coordinate {m}
    24,                      !- Vertex 3 Z-coordinate {m}
    -.0705340641,            !- Vertex 4 X-coordinate {m}
    -.0724456333,            !- Vertex 4 Y-coordinate {m}
    24;                      !- Vertex 4 Z-coordinate {m}

Shading:Building:Detailed,
    Ext9,                    !- Name
    ,                        !- Transmittance Schedule Name
    4,                       !- Number of Vertices
    -.0705340641,            !- Vertex 1 X-coordinate {m}
    -62.4724456333,          !- Vertex 1 Y-coordinate {m}
    16,                      !- Vertex 1 Z-coordinate {m}
    33.5320643908,           !- Vertex 2 X-coordinate {m}
    -62.4724456333,          !- Vertex 2 Y-coordinate {m}
    16,                      !- Vertex 2 Z-coordinate {m}
    33.5320643908,           !- Vertex 3 X-coordinate {m}
    -62.4724456333,          !- Vertex 3 Y-coordinate {m}
    24,                      !- Vertex 3 Z-coordinate {m}
    -.0705340641,            !- Vertex 4 X-coordinate {m}
    -62.4724456333,          !- Vertex 4 Y-coordinate {m}
    24;                      !- Vertex 4 Z-coordinate {m}

Shading:Building:Detailed,
    Ext10,                   !- Name
    ,                        !- Transmittance Schedule Name
    4,                       !- Number of Vertices
    33.5320643908,           !- Vertex 1 X-coordinate {m}
    -62.4724456333,          !- Vertex 1 Y-coordinate {m}
    24,                      !- Vertex 1 Z-coordinate {m}
    41.9276439732,           !- Vertex 2 X-coordinate {m}
    -62.4724456333,          !- Vertex 2 Y-coordinate {m}
    24,                      !- Vertex 2 Z-coordinate {m}
    41.9276439732,           !- Vertex 3 X-coordinate {m}
    -54.0690396428,          !- Vertex 3 Y-coordinate {m}
    24,                      !- Vertex 3 Z-coordinate {m}
    33.5320643908,           !- Vertex 4 X-coordinate {m}
    -54.0690396428,          !- Vertex 4 Y-coordinate {m}
    24;                      !- Vertex 4 Z-coordinate {m}

Shading:Building:Detailed,
    Ext11,                   !- Name
    ,                        !- Transmittance Schedule Name
    4,                       !- Number of Vertices
    33.5320643908,           !- Vertex 1 X-coordinate {m}
    -62.4724456333,          !- Vertex 1 Y-coordinate {m}
    16,                      !- Vertex 1 Z-coordinate {m}
    41.9276439732,           !- Vertex 2 X-coordinate {m}
    -62.4724456333,          !- Vertex 2 Y-coordinate {m}
    16,                      !- Vertex 2 Z-coordinate {m}
    41.9276439732,           !- Vertex 3 X-coordinate {m}
    -62.4724456333,          !- Vertex 3 Y-coordinate {m}
    24,                      !- Vertex 3 Z-coordinate {m}
    33.5320643908,           !- Vertex 4 X-coordinate {m}
    -62.4724456333,          !- Vertex 4 Y-coordinate {m}
    24;                      !- Vertex 4 Z-coordinate {m}

Shading:Building:Detailed,
    Ext12,                   !- Name
    ,                        !- Transmittance Schedule Name
    4,                       !- Number of Vertices
    41.9276439732,           !- Vertex 1 X-coordinate {m}
    -62.4724456333,          !- Vertex 1 Y-coordinate {m}
    24,                      !- Vertex 1 Z-coordinate {m}
    44.3294659359,           !- Vertex 2 X-coordinate {m}
    -62.4724456333,          !- Vertex 2 Y-coordinate {m}
    24,                      !- Vertex 2 Z-coordinate {m}
    44.3294659359,           !- Vertex 3 X-coordinate {m}
    -8.4724456333,           !- Vertex 3 Y-coordinate {m}
    24,                      !- Vertex 3 Z-coordinate {m}
    41.9276439732,           !- Vertex 4 X-coordinate {m}
    -8.4724456333,           !- Vertex 4 Y-coordinate {m}
    24;                      !- Vertex 4 Z-coordinate {m}

Shading:Building:Detailed,
    Ext13,                   !- Name
    ,                        !- Transmittance Schedule Name
    4,                       !- Number of Vertices
    44.3294659359,           !- Vertex 1 X-coordinate {m}
    -62.4724456333,          !- Vertex 1 Y-coordinate {m}
    16,                      !- Vertex 1 Z-coordinate {m}
    44.3294659359,           !- Vertex 2 X-coordinate {m}
    -8.4724456333,           !- Vertex 2 Y-coordinate {m}
    16,                      !- Vertex 2 Z-coordinate {m}
    44.3294659359,           !- Vertex 3 X-coordinate {m}
    -8.4724456333,           !- Vertex 3 Y-coordinate {m}
    24,                      !- Vertex 3 Z-coordinate {m}
    44.3294659359,           !- Vertex 4 X-coordinate {m}
    -62.4724456333,          !- Vertex 4 Y-coordinate {m}
    24;                      !- Vertex 4 Z-coordinate {m}

Shading:Building:Detailed,
    Ext14,                   !- Name
    ,                        !- Transmittance Schedule Name
    4,                       !- Number of Vertices
    41.9276439732,           !- Vertex 1 X-coordinate {m}
    -62.4724456333,          !- Vertex 1 Y-coordinate {m}
    16,                      !- Vertex 1 Z-coordinate {m}
    44.3294659359,           !- Vertex 2 X-coordinate {m}
    -62.4724456333,          !- Vertex 2 Y-coordinate {m}
    16,                      !- Vertex 2 Z-coordinate {m}
    44.3294659359,           !- Vertex 3 X-coordinate {m}
    -62.4724456333,          !- Vertex 3 Y-coordinate {m}
    24,                      !- Vertex 3 Z-coordinate {m}
    41.9276439732,           !- Vertex 4 X-coordinate {m}
    -62.4724456333,          !- Vertex 4 Y-coordinate {m}
    24;                      !- Vertex 4 Z-coordinate {m}

Shading:Building:Detailed,
    Ext15,                   !- Name
    ,                        !- Transmittance Schedule Name
    4,                       !- Number of Vertices
    33.5320643908,           !- Vertex 1 X-coordinate {m}
    -8.4724456333,           !- Vertex 1 Y-coordinate {m}
    24,                      !- Vertex 1 Z-coordinate {m}
    44.3294659359,           !- Vertex 2 X-coordinate {m}
    -8.4724456333,           !- Vertex 2 Y-coordinate {m}
    24,                      !- Vertex 2 Z-coordinate {m}
    44.3294659359,           !- Vertex 3 X-coordinate {m}
    -.0724456333,            !- Vertex 3 Y-coordinate {m}
    24,                      !- Vertex 3 Z-coordinate {m}
    33.5320643908,           !- Vertex 4 X-coordinate {m}
    -.0724456333,            !- Vertex 4 Y-coordinate {m}
    24;                      !- Vertex 4 Z-coordinate {m}

Shading:Building:Detailed,
    Ext16,                   !- Name
    ,                        !- Transmittance Schedule Name
    4,                       !- Number of Vertices
    44.3294659359,           !- Vertex 1 X-coordinate {m}
    -8.4724456333,           !- Vertex 1 Y-coordinate {m}
    16,                      !- Vertex 1 Z-coordinate {m}
    44.3294659359,           !- Vertex 2 X-coordinate {m}
    -.0724456333,            !- Vertex 2 Y-coordinate {m}
    16,                      !- Vertex 2 Z-coordinate {m}
    44.3294659359,           !- Vertex 3 X-coordinate {m}
    -.0724456333,            !- Vertex 3 Y-coordinate {m}
    24,                      !- Vertex 3 Z-coordinate {m}
    44.3294659359,           !- Vertex 4 X-coordinate {m}
    -8.4724456333,           !- Vertex 4 Y-coordinate {m}
    24;                      !- Vertex 4 Z-coordinate {m}

Shading:Building:Detailed,
    Ext17,                   !- Name
    ,                        !- Transmittance Schedule Name
    4,                       !- Number of Vertices
    44.3294659359,           !- Vertex 1 X-coordinate {m}
    -.0724456333,            !- Vertex 1 Y-coordinate {m}
    16,                      !- Vertex 1 Z-coordinate {m}
    33.5320643908,           !- Vertex 2 X-coordinate {m}
    -.0724456333,            !- Vertex 2 Y-coordinate {m}
    16,                      !- Vertex 2 Z-coordinate {m}
    33.5320643908,           !- Vertex 3 X-coordinate {m}
    -.0724456333,            !- Vertex 3 Y-coordinate {m}
    24,                      !- Vertex 3 Z-coordinate {m}
    44.3294659359,           !- Vertex 4 X-coordinate {m}
    -.0724456333,            !- Vertex 4 Y-coordinate {m}
    24;                      !- Vertex 4 Z-coordinate {m}


!-   ===========  ALL OBJECTS IN CLASS: LIGHTS ===========

Lights,
    3F:BTXRXup General lighting,  !- Name
    3F:BTXRXup,              !- Zone or ZoneList or Space or SpaceList Name
    Misc24Hr_DataCentre_Light,  !- Schedule Name
    Watts/Area,              !- Design Level Calculation Method
    ,                        !- Lighting Level {W}
    28.888,                  !- Watts per Zone Floor Area {W/m2}
    ,                        !- Watts per Person {W/person}
    0,                       !- Return Air Fraction
    0.42,                    !- Fraction Radiant
    0.18,                    !- Fraction Visible
    1,                       !- Fraction Replaceable
    ELECTRIC EQUIPMENT#3F:BTXRXup#GeneralLights;  !- End-Use Subcategory

Lights,
    3F:EXRXup General lighting,  !- Name
    3F:EXRXup,               !- Zone or ZoneList or Space or SpaceList Name
    Misc24Hr_DataCentre_Light,  !- Schedule Name
    Watts/Area,              !- Design Level Calculation Method
    ,                        !- Lighting Level {W}
    28.888,                  !- Watts per Zone Floor Area {W/m2}
    ,                        !- Watts per Person {W/person}
    0,                       !- Return Air Fraction
    0.42,                    !- Fraction Radiant
    0.18,                    !- Fraction Visible
    1,                       !- Fraction Replaceable
    ELECTRIC EQUIPMENT#3F:EXRXup#GeneralLights;  !- End-Use Subcategory

Lights,
    3F:UPSXup General lighting,  !- Name
    3F:UPSXup,               !- Zone or ZoneList or Space or SpaceList Name
    Misc24Hr_DataCentre_Light,  !- Schedule Name
    Watts/Area,              !- Design Level Calculation Method
    ,                        !- Lighting Level {W}
    28.888,                  !- Watts per Zone Floor Area {W/m2}
    ,                        !- Watts per Person {W/person}
    0,                       !- Return Air Fraction
    0.42,                    !- Fraction Radiant
    0.18,                    !- Fraction Visible
    1,                       !- Fraction Replaceable
    ELECTRIC EQUIPMENT#3F:UPSXup#GeneralLights;  !- End-Use Subcategory

Lights,
    3F:DC General lighting,  !- Name
    3F:DC,                   !- Zone or ZoneList or Space or SpaceList Name
    Misc24Hr_DataCentre_Light,  !- Schedule Name
    Watts/Area,              !- Design Level Calculation Method
    ,                        !- Lighting Level {W}
    28.888,                  !- Watts per Zone Floor Area {W/m2}
    ,                        !- Watts per Person {W/person}
    0,                       !- Return Air Fraction
    0.42,                    !- Fraction Radiant
    0.18,                    !- Fraction Visible
    1,                       !- Fraction Replaceable
    ELECTRIC EQUIPMENT#3F:DC#GeneralLights;  !- End-Use Subcategory

Lights,
    3F:UPSXdown General lighting,  !- Name
    3F:UPSXdown,             !- Zone or ZoneList or Space or SpaceList Name
    Misc24Hr_DataCentre_Light,  !- Schedule Name
    Watts/Area,              !- Design Level Calculation Method
    ,                        !- Lighting Level {W}
    28.888,                  !- Watts per Zone Floor Area {W/m2}
    ,                        !- Watts per Person {W/person}
    0,                       !- Return Air Fraction
    0.42,                    !- Fraction Radiant
    0.18,                    !- Fraction Visible
    1,                       !- Fraction Replaceable
    ELECTRIC EQUIPMENT#3F:UPSXdown#GeneralLights;  !- End-Use Subcategory

Lights,
    3F:EXRXdown General lighting,  !- Name
    3F:EXRXdown,             !- Zone or ZoneList or Space or SpaceList Name
    Misc24Hr_DataCentre_Light,  !- Schedule Name
    Watts/Area,              !- Design Level Calculation Method
    ,                        !- Lighting Level {W}
    28.888,                  !- Watts per Zone Floor Area {W/m2}
    ,                        !- Watts per Person {W/person}
    0,                       !- Return Air Fraction
    0.42,                    !- Fraction Radiant
    0.18,                    !- Fraction Visible
    1,                       !- Fraction Replaceable
    ELECTRIC EQUIPMENT#3F:EXRXdown#GeneralLights;  !- End-Use Subcategory

Lights,
    3F:BTXRXdown General lighting,  !- Name
    3F:BTXRXdown,            !- Zone or ZoneList or Space or SpaceList Name
    Misc24Hr_DataCentre_Light,  !- Schedule Name
    Watts/Area,              !- Design Level Calculation Method
    ,                        !- Lighting Level {W}
    28.888,                  !- Watts per Zone Floor Area {W/m2}
    ,                        !- Watts per Person {W/person}
    0,                       !- Return Air Fraction
    0.42,                    !- Fraction Radiant
    0.18,                    !- Fraction Visible
    1,                       !- Fraction Replaceable
    ELECTRIC EQUIPMENT#3F:BTXRXdown#GeneralLights;  !- End-Use Subcategory


!-   ===========  ALL OBJECTS IN CLASS: OTHEREQUIPMENT ===========

! Equipment gain 1
OtherEquipment,
    3F:BTXRXup Equipment gain 1,  !- Name
    Electricity,             !- Fuel Type
    3F:BTXRXup,              !- Zone or ZoneList or Space or SpaceList Name
    Misc24Hr_DataCentre_Equip,  !- Schedule Name
    Watts/Area,              !- Design Level Calculation Method
    ,                        !- Design Level {W}
    258.2,                   !- Power per Zone Floor Area {W/m2}
    ,                        !- Power per Person {W/person}
    0,                       !- Fraction Latent
    0.2,                     !- Fraction Radiant
    0,                       !- Fraction Lost
    0,                       !- Carbon Dioxide Generation Rate {m3/s-W}
    General;                 !- End-Use Subcategory

! Equipment gain 1
OtherEquipment,
    3F:EXRXup Equipment gain 1,  !- Name
    Electricity,             !- Fuel Type
    3F:EXRXup,               !- Zone or ZoneList or Space or SpaceList Name
    Misc24Hr_DataCentre_Equip,  !- Schedule Name
    Watts/Area,              !- Design Level Calculation Method
    ,                        !- Design Level {W}
    131,                     !- Power per Zone Floor Area {W/m2}
    ,                        !- Power per Person {W/person}
    0,                       !- Fraction Latent
    0.2,                     !- Fraction Radiant
    0,                       !- Fraction Lost
    0,                       !- Carbon Dioxide Generation Rate {m3/s-W}
    General;                 !- End-Use Subcategory

! Equipment gain 1
OtherEquipment,
    3F:UPSXup Equipment gain 1,  !- Name
    Electricity,             !- Fuel Type
    3F:UPSXup,               !- Zone or ZoneList or Space or SpaceList Name
    Misc24Hr_DataCentre_Equip,  !- Schedule Name
    Watts/Area,              !- Design Level Calculation Method
    ,                        !- Design Level {W}
    111.9,                   !- Power per Zone Floor Area {W/m2}
    ,                        !- Power per Person {W/person}
    0,                       !- Fraction Latent
    0.2,                     !- Fraction Radiant
    0,                       !- Fraction Lost
    0,                       !- Carbon Dioxide Generation Rate {m3/s-W}
    General;                 !- End-Use Subcategory

! Process gain 1
OtherEquipment,
    3F:DC Process gain 1,    !- Name
    Electricity,             !- Fuel Type
    3F:DC,                   !- Zone or ZoneList or Space or SpaceList Name
    Misc24Hr_DataCentre_Equip,  !- Schedule Name
    Watts/Area,              !- Design Level Calculation Method
    ,                        !- Design Level {W}
    2300.7,                  !- Power per Zone Floor Area {W/m2}
    ,                        !- Power per Person {W/person}
    0,                       !- Fraction Latent
    0.2,                     !- Fraction Radiant
    0,                       !- Fraction Lost
    0,                       !- Carbon Dioxide Generation Rate {m3/s-W}
    General;                 !- End-Use Subcategory

! Equipment gain 1
OtherEquipment,
    3F:UPSXdown Equipment gain 1,  !- Name
    Electricity,             !- Fuel Type
    3F:UPSXdown,             !- Zone or ZoneList or Space or SpaceList Name
    Misc24Hr_DataCentre_Equip,  !- Schedule Name
    Watts/Area,              !- Design Level Calculation Method
    ,                        !- Design Level {W}
    182.6,                   !- Power per Zone Floor Area {W/m2}
    ,                        !- Power per Person {W/person}
    0,                       !- Fraction Latent
    0.2,                     !- Fraction Radiant
    0,                       !- Fraction Lost
    0,                       !- Carbon Dioxide Generation Rate {m3/s-W}
    General;                 !- End-Use Subcategory

! Equipment gain 1
OtherEquipment,
    3F:EXRXdown Equipment gain 1,  !- Name
    Electricity,             !- Fuel Type
    3F:EXRXdown,             !- Zone or ZoneList or Space or SpaceList Name
    Misc24Hr_DataCentre_Equip,  !- Schedule Name
    Watts/Area,              !- Design Level Calculation Method
    ,                        !- Design Level {W}
    131.6,                   !- Power per Zone Floor Area {W/m2}
    ,                        !- Power per Person {W/person}
    0,                       !- Fraction Latent
    0.2,                     !- Fraction Radiant
    0,                       !- Fraction Lost
    0,                       !- Carbon Dioxide Generation Rate {m3/s-W}
    General;                 !- End-Use Subcategory

! Equipment gain 1
OtherEquipment,
    3F:BTXRXdown Equipment gain 1,  !- Name
    Electricity,             !- Fuel Type
    3F:BTXRXdown,            !- Zone or ZoneList or Space or SpaceList Name
    Misc24Hr_DataCentre_Equip,  !- Schedule Name
    Watts/Area,              !- Design Level Calculation Method
    ,                        !- Design Level {W}
    591.8,                   !- Power per Zone Floor Area {W/m2}
    ,                        !- Power per Person {W/person}
    0,                       !- Fraction Latent
    0.2,                     !- Fraction Radiant
    0,                       !- Fraction Lost
    0,                       !- Carbon Dioxide Generation Rate {m3/s-W}
    General;                 !- End-Use Subcategory


!-   ===========  ALL OBJECTS IN CLASS: OUTPUTCONTROL:ILLUMINANCEMAP:STYLE ===========

OutputControl:IlluminanceMap:Style,
    Comma;                   !- Column Separator


!-   ===========  ALL OBJECTS IN CLASS: ZONEINFILTRATION:DESIGNFLOWRATE ===========

ZoneInfiltration:DesignFlowRate,
    3F:BTXRXup Infiltration, !- Name
    3F:BTXRXup,              !- Zone or ZoneList or Space or SpaceList Name
    On 24/7,                 !- Schedule Name
    Flow/zone,               !- Design Flow Rate Calculation Method
    0.028288,                !- Design Flow Rate {m3/s}
    ,                        !- Flow Rate per Floor Area {m3/s-m2}
    ,                        !- Flow Rate per Exterior Surface Area {m3/s-m2}
    ,                        !- Air Changes per Hour {1/hr}
    1,                       !- Constant Term Coefficient
    0,                       !- Temperature Term Coefficient
    0,                       !- Velocity Term Coefficient
    0;                       !- Velocity Squared Term Coefficient

ZoneInfiltration:DesignFlowRate,
    3F:EXRXup Infiltration,  !- Name
    3F:EXRXup,               !- Zone or ZoneList or Space or SpaceList Name
    On 24/7,                 !- Schedule Name
    Flow/zone,               !- Design Flow Rate Calculation Method
    0.047416,                !- Design Flow Rate {m3/s}
    ,                        !- Flow Rate per Floor Area {m3/s-m2}
    ,                        !- Flow Rate per Exterior Surface Area {m3/s-m2}
    ,                        !- Air Changes per Hour {1/hr}
    1,                       !- Constant Term Coefficient
    0,                       !- Temperature Term Coefficient
    0,                       !- Velocity Term Coefficient
    0;                       !- Velocity Squared Term Coefficient

ZoneInfiltration:DesignFlowRate,
    3F:UPSXup Infiltration,  !- Name
    3F:UPSXup,               !- Zone or ZoneList or Space or SpaceList Name
    On 24/7,                 !- Schedule Name
    Flow/zone,               !- Design Flow Rate Calculation Method
    0.037851,                !- Design Flow Rate {m3/s}
    ,                        !- Flow Rate per Floor Area {m3/s-m2}
    ,                        !- Flow Rate per Exterior Surface Area {m3/s-m2}
    ,                        !- Air Changes per Hour {1/hr}
    1,                       !- Constant Term Coefficient
    0,                       !- Temperature Term Coefficient
    0,                       !- Velocity Term Coefficient
    0;                       !- Velocity Squared Term Coefficient

ZoneInfiltration:DesignFlowRate,
    3F:DC Infiltration,      !- Name
    3F:DC,                   !- Zone or ZoneList or Space or SpaceList Name
    On 24/7,                 !- Schedule Name
    Flow/zone,               !- Design Flow Rate Calculation Method
    0.230837,                !- Design Flow Rate {m3/s}
    ,                        !- Flow Rate per Floor Area {m3/s-m2}
    ,                        !- Flow Rate per Exterior Surface Area {m3/s-m2}
    ,                        !- Air Changes per Hour {1/hr}
    1,                       !- Constant Term Coefficient
    0,                       !- Temperature Term Coefficient
    0,                       !- Velocity Term Coefficient
    0;                       !- Velocity Squared Term Coefficient

ZoneInfiltration:DesignFlowRate,
    3F:UPSXdown Infiltration,!- Name
    3F:UPSXdown,             !- Zone or ZoneList or Space or SpaceList Name
    On 24/7,                 !- Schedule Name
    Flow/zone,               !- Design Flow Rate Calculation Method
    0.026848,                !- Design Flow Rate {m3/s}
    ,                        !- Flow Rate per Floor Area {m3/s-m2}
    ,                        !- Flow Rate per Exterior Surface Area {m3/s-m2}
    ,                        !- Air Changes per Hour {1/hr}
    1,                       !- Constant Term Coefficient
    0,                       !- Temperature Term Coefficient
    0,                       !- Velocity Term Coefficient
    0;                       !- Velocity Squared Term Coefficient

ZoneInfiltration:DesignFlowRate,
    3F:EXRXdown Infiltration,!- Name
    3F:EXRXdown,             !- Zone or ZoneList or Space or SpaceList Name
    On 24/7,                 !- Schedule Name
    Flow/zone,               !- Design Flow Rate Calculation Method
    0.03363,                 !- Design Flow Rate {m3/s}
    ,                        !- Flow Rate per Floor Area {m3/s-m2}
    ,                        !- Flow Rate per Exterior Surface Area {m3/s-m2}
    ,                        !- Air Changes per Hour {1/hr}
    1,                       !- Constant Term Coefficient
    0,                       !- Temperature Term Coefficient
    0,                       !- Velocity Term Coefficient
    0;                       !- Velocity Squared Term Coefficient

ZoneInfiltration:DesignFlowRate,
    3F:BTXRXdown Infiltration,  !- Name
    3F:BTXRXdown,            !- Zone or ZoneList or Space or SpaceList Name
    On 24/7,                 !- Schedule Name
    Flow/zone,               !- Design Flow Rate Calculation Method
    0.020067,                !- Design Flow Rate {m3/s}
    ,                        !- Flow Rate per Floor Area {m3/s-m2}
    ,                        !- Flow Rate per Exterior Surface Area {m3/s-m2}
    ,                        !- Air Changes per Hour {1/hr}
    1,                       !- Constant Term Coefficient
    0,                       !- Temperature Term Coefficient
    0,                       !- Velocity Term Coefficient
    0;                       !- Velocity Squared Term Coefficient


!-   ===========  ALL OBJECTS IN CLASS: DESIGNSPECIFICATION:OUTDOORAIR ===========

DesignSpecification:OutdoorAir,
    3F:DC Design Specification Outdoor Air Object,  !- Name
    Sum,                     !- Outdoor Air Method
    0.010000,                !- Outdoor Air Flow per Person {m3/s-person}
    0.000000,                !- Outdoor Air Flow per Zone Floor Area {m3/s-m2}
    0.0,                     !- Outdoor Air Flow per Zone {m3/s}
    0.000000,                !- Outdoor Air Flow Air Changes per Hour {1/hr}
    On 24/7;                 !- Outdoor Air Schedule Name

DesignSpecification:OutdoorAir,
    3F:BTXRXup Design Specification Outdoor Air Object,  !- Name
    Sum,                     !- Outdoor Air Method
    0.010000,                !- Outdoor Air Flow per Person {m3/s-person}
    0.000000,                !- Outdoor Air Flow per Zone Floor Area {m3/s-m2}
    0.0,                     !- Outdoor Air Flow per Zone {m3/s}
    0.000000,                !- Outdoor Air Flow Air Changes per Hour {1/hr}
    On 24/7;                 !- Outdoor Air Schedule Name

DesignSpecification:OutdoorAir,
    3F:EXRXup Design Specification Outdoor Air Object,  !- Name
    Sum,                     !- Outdoor Air Method
    0.010000,                !- Outdoor Air Flow per Person {m3/s-person}
    0.000000,                !- Outdoor Air Flow per Zone Floor Area {m3/s-m2}
    0.0,                     !- Outdoor Air Flow per Zone {m3/s}
    0.000000,                !- Outdoor Air Flow Air Changes per Hour {1/hr}
    On 24/7;                 !- Outdoor Air Schedule Name

DesignSpecification:OutdoorAir,
    3F:UPSXup Design Specification Outdoor Air Object,  !- Name
    Sum,                     !- Outdoor Air Method
    0.010000,                !- Outdoor Air Flow per Person {m3/s-person}
    0.000000,                !- Outdoor Air Flow per Zone Floor Area {m3/s-m2}
    0.0,                     !- Outdoor Air Flow per Zone {m3/s}
    0.000000,                !- Outdoor Air Flow Air Changes per Hour {1/hr}
    On 24/7;                 !- Outdoor Air Schedule Name

DesignSpecification:OutdoorAir,
    3F:UPSXdown Design Specification Outdoor Air Object,  !- Name
    Sum,                     !- Outdoor Air Method
    0.010000,                !- Outdoor Air Flow per Person {m3/s-person}
    0.000000,                !- Outdoor Air Flow per Zone Floor Area {m3/s-m2}
    0.0,                     !- Outdoor Air Flow per Zone {m3/s}
    0.000000,                !- Outdoor Air Flow Air Changes per Hour {1/hr}
    On 24/7;                 !- Outdoor Air Schedule Name

DesignSpecification:OutdoorAir,
    3F:EXRXdown Design Specification Outdoor Air Object,  !- Name
    Sum,                     !- Outdoor Air Method
    0.010000,                !- Outdoor Air Flow per Person {m3/s-person}
    0.000000,                !- Outdoor Air Flow per Zone Floor Area {m3/s-m2}
    0.0,                     !- Outdoor Air Flow per Zone {m3/s}
    0.000000,                !- Outdoor Air Flow Air Changes per Hour {1/hr}
    On 24/7;                 !- Outdoor Air Schedule Name

DesignSpecification:OutdoorAir,
    3F:BTXRXdown Design Specification Outdoor Air Object,  !- Name
    Sum,                     !- Outdoor Air Method
    0.010000,                !- Outdoor Air Flow per Person {m3/s-person}
    0.000000,                !- Outdoor Air Flow per Zone Floor Area {m3/s-m2}
    0.0,                     !- Outdoor Air Flow per Zone {m3/s}
    0.000000,                !- Outdoor Air Flow Air Changes per Hour {1/hr}
    On 24/7;                 !- Outdoor Air Schedule Name


!-   ===========  ALL OBJECTS IN CLASS: DESIGNSPECIFICATION:ZONEAIRDISTRIBUTION ===========

DesignSpecification:ZoneAirDistribution,
    3F:DC Design Specification Zone Air Distribution Object,  !- Name
    1.0000,                  !- Zone Air Distribution Effectiveness in Cooling Mode {dimensionless}
    1.0000,                  !- Zone Air Distribution Effectiveness in Heating Mode {dimensionless}
    ,                        !- Zone Air Distribution Effectiveness Schedule Name
    0.0000;                  !- Zone Secondary Recirculation Fraction {dimensionless}

DesignSpecification:ZoneAirDistribution,
    3F:BTXRXup Design Specification Zone Air Distribution Object,  !- Name
    1.0000,                  !- Zone Air Distribution Effectiveness in Cooling Mode {dimensionless}
    1.0000,                  !- Zone Air Distribution Effectiveness in Heating Mode {dimensionless}
    ,                        !- Zone Air Distribution Effectiveness Schedule Name
    0.0000;                  !- Zone Secondary Recirculation Fraction {dimensionless}

DesignSpecification:ZoneAirDistribution,
    3F:EXRXup Design Specification Zone Air Distribution Object,  !- Name
    1.0000,                  !- Zone Air Distribution Effectiveness in Cooling Mode {dimensionless}
    1.0000,                  !- Zone Air Distribution Effectiveness in Heating Mode {dimensionless}
    ,                        !- Zone Air Distribution Effectiveness Schedule Name
    0.0000;                  !- Zone Secondary Recirculation Fraction {dimensionless}

DesignSpecification:ZoneAirDistribution,
    3F:UPSXup Design Specification Zone Air Distribution Object,  !- Name
    1.0000,                  !- Zone Air Distribution Effectiveness in Cooling Mode {dimensionless}
    1.0000,                  !- Zone Air Distribution Effectiveness in Heating Mode {dimensionless}
    ,                        !- Zone Air Distribution Effectiveness Schedule Name
    0.0000;                  !- Zone Secondary Recirculation Fraction {dimensionless}

DesignSpecification:ZoneAirDistribution,
    3F:UPSXdown Design Specification Zone Air Distribution Object,  !- Name
    1.0000,                  !- Zone Air Distribution Effectiveness in Cooling Mode {dimensionless}
    1.0000,                  !- Zone Air Distribution Effectiveness in Heating Mode {dimensionless}
    ,                        !- Zone Air Distribution Effectiveness Schedule Name
    0.0000;                  !- Zone Secondary Recirculation Fraction {dimensionless}

DesignSpecification:ZoneAirDistribution,
    3F:EXRXdown Design Specification Zone Air Distribution Object,  !- Name
    1.0000,                  !- Zone Air Distribution Effectiveness in Cooling Mode {dimensionless}
    1.0000,                  !- Zone Air Distribution Effectiveness in Heating Mode {dimensionless}
    ,                        !- Zone Air Distribution Effectiveness Schedule Name
    0.0000;                  !- Zone Secondary Recirculation Fraction {dimensionless}

DesignSpecification:ZoneAirDistribution,
    3F:BTXRXdown Design Specification Zone Air Distribution Object,  !- Name
    1.0000,                  !- Zone Air Distribution Effectiveness in Cooling Mode {dimensionless}
    1.0000,                  !- Zone Air Distribution Effectiveness in Heating Mode {dimensionless}
    ,                        !- Zone Air Distribution Effectiveness Schedule Name
    0.0000;                  !- Zone Secondary Recirculation Fraction {dimensionless}


!-   ===========  ALL OBJECTS IN CLASS: SIZING:PARAMETERS ===========

! Default heating and cooling sizing parameters - only used when the Sizing:Zone sizing parameters are left blank.
Sizing:Parameters,
    1.25,                    !- Heating Sizing Factor
    1.15,                    !- Cooling Sizing Factor
    2;                       !- Timesteps in Averaging Window


!-   ===========  ALL OBJECTS IN CLASS: SIZING:ZONE ===========

Sizing:Zone,
    3F:DC,                   !- Zone or ZoneList Name
    SupplyAirTemperature,    !- Zone Cooling Design Supply Air Temperature Input Method
    16.00,                   !- Zone Cooling Design Supply Air Temperature {C}
    10.00,                   !- Zone Cooling Design Supply Air Temperature Difference {deltaC}
    SupplyAirTemperature,    !- Zone Heating Design Supply Air Temperature Input Method
    50.00,                   !- Zone Heating Design Supply Air Temperature {C}
    10.00,                   !- Zone Heating Design Supply Air Temperature Difference {deltaC}
    0.0090,                  !- Zone Cooling Design Supply Air Humidity Ratio {kgWater/kgDryAir}
    0.0040,                  !- Zone Heating Design Supply Air Humidity Ratio {kgWater/kgDryAir}
    3F:DC Design Specification Outdoor Air Object,  !- Design Specification Outdoor Air Object Name
    1.25,                    !- Zone Heating Sizing Factor
    1.15,                    !- Zone Cooling Sizing Factor
    DesignDay,               !- Cooling Design Air Flow Method
    0.000000,                !- Cooling Design Air Flow Rate {m3/s}
    0.000760,                !- Cooling Minimum Air Flow per Zone Floor Area {m3/s-m2}
    0.000000,                !- Cooling Minimum Air Flow {m3/s}
    0.00,                    !- Cooling Minimum Air Flow Fraction
    DesignDay,               !- Heating Design Air Flow Method
    0.000000,                !- Heating Design Air Flow Rate {m3/s}
    0.002030,                !- Heating Maximum Air Flow per Zone Floor Area {m3/s-m2}
    0.141580,                !- Heating Maximum Air Flow {m3/s}
    0.30,                    !- Heating Maximum Air Flow Fraction
    3F:DC Design Specification Zone Air Distribution Object,  !- Design Specification Zone Air Distribution Object Name
    No,                      !- Account for Dedicated Outdoor Air System
    NeutralSupplyAir,        !- Dedicated Outdoor Air System Control Strategy
    autosize,                !- Dedicated Outdoor Air Low Setpoint Temperature for Design {C}
    autosize,                !- Dedicated Outdoor Air High Setpoint Temperature for Design {C}
    Sensible Load Only No Latent Load,  !- Zone Load Sizing Method
    HumidityRatioDifference, !- Zone Latent Cooling Design Supply Air Humidity Ratio Input Method
    ,                        !- Zone Dehumidification Design Supply Air Humidity Ratio {kgWater/kgDryAir}
    0.005,                   !- Zone Cooling Design Supply Air Humidity Ratio Difference {kgWater/kgDryAir}
    HumidityRatioDifference, !- Zone Latent Heating Design Supply Air Humidity Ratio Input Method
    ,                        !- Zone Humidification Design Supply Air Humidity Ratio {kgWater/kgDryAir}
    0.005;                   !- Zone Humidification Design Supply Air Humidity Ratio Difference {kgWater/kgDryAir}

Sizing:Zone,
    3F:BTXRXup,              !- Zone or ZoneList Name
    SupplyAirTemperature,    !- Zone Cooling Design Supply Air Temperature Input Method
    16.00,                   !- Zone Cooling Design Supply Air Temperature {C}
    10.00,                   !- Zone Cooling Design Supply Air Temperature Difference {deltaC}
    SupplyAirTemperature,    !- Zone Heating Design Supply Air Temperature Input Method
    50.00,                   !- Zone Heating Design Supply Air Temperature {C}
    10.00,                   !- Zone Heating Design Supply Air Temperature Difference {deltaC}
    0.0090,                  !- Zone Cooling Design Supply Air Humidity Ratio {kgWater/kgDryAir}
    0.0040,                  !- Zone Heating Design Supply Air Humidity Ratio {kgWater/kgDryAir}
    3F:BTXRXup Design Specification Outdoor Air Object,  !- Design Specification Outdoor Air Object Name
    1.25,                    !- Zone Heating Sizing Factor
    1.15,                    !- Zone Cooling Sizing Factor
    DesignDay,               !- Cooling Design Air Flow Method
    0.000000,                !- Cooling Design Air Flow Rate {m3/s}
    0.000760,                !- Cooling Minimum Air Flow per Zone Floor Area {m3/s-m2}
    0.000000,                !- Cooling Minimum Air Flow {m3/s}
    0.00,                    !- Cooling Minimum Air Flow Fraction
    DesignDay,               !- Heating Design Air Flow Method
    0.000000,                !- Heating Design Air Flow Rate {m3/s}
    0.002030,                !- Heating Maximum Air Flow per Zone Floor Area {m3/s-m2}
    0.141580,                !- Heating Maximum Air Flow {m3/s}
    0.30,                    !- Heating Maximum Air Flow Fraction
    3F:BTXRXup Design Specification Zone Air Distribution Object,  !- Design Specification Zone Air Distribution Object Name
    No,                      !- Account for Dedicated Outdoor Air System
    NeutralSupplyAir,        !- Dedicated Outdoor Air System Control Strategy
    autosize,                !- Dedicated Outdoor Air Low Setpoint Temperature for Design {C}
    autosize,                !- Dedicated Outdoor Air High Setpoint Temperature for Design {C}
    Sensible Load Only No Latent Load,  !- Zone Load Sizing Method
    HumidityRatioDifference, !- Zone Latent Cooling Design Supply Air Humidity Ratio Input Method
    ,                        !- Zone Dehumidification Design Supply Air Humidity Ratio {kgWater/kgDryAir}
    0.005,                   !- Zone Cooling Design Supply Air Humidity Ratio Difference {kgWater/kgDryAir}
    HumidityRatioDifference, !- Zone Latent Heating Design Supply Air Humidity Ratio Input Method
    ,                        !- Zone Humidification Design Supply Air Humidity Ratio {kgWater/kgDryAir}
    0.005;                   !- Zone Humidification Design Supply Air Humidity Ratio Difference {kgWater/kgDryAir}

Sizing:Zone,
    3F:EXRXup,               !- Zone or ZoneList Name
    SupplyAirTemperature,    !- Zone Cooling Design Supply Air Temperature Input Method
    16.00,                   !- Zone Cooling Design Supply Air Temperature {C}
    10.00,                   !- Zone Cooling Design Supply Air Temperature Difference {deltaC}
    SupplyAirTemperature,    !- Zone Heating Design Supply Air Temperature Input Method
    50.00,                   !- Zone Heating Design Supply Air Temperature {C}
    10.00,                   !- Zone Heating Design Supply Air Temperature Difference {deltaC}
    0.0090,                  !- Zone Cooling Design Supply Air Humidity Ratio {kgWater/kgDryAir}
    0.0040,                  !- Zone Heating Design Supply Air Humidity Ratio {kgWater/kgDryAir}
    3F:EXRXup Design Specification Outdoor Air Object,  !- Design Specification Outdoor Air Object Name
    1.25,                    !- Zone Heating Sizing Factor
    1.15,                    !- Zone Cooling Sizing Factor
    DesignDay,               !- Cooling Design Air Flow Method
    0.000000,                !- Cooling Design Air Flow Rate {m3/s}
    0.000760,                !- Cooling Minimum Air Flow per Zone Floor Area {m3/s-m2}
    0.000000,                !- Cooling Minimum Air Flow {m3/s}
    0.00,                    !- Cooling Minimum Air Flow Fraction
    DesignDay,               !- Heating Design Air Flow Method
    0.000000,                !- Heating Design Air Flow Rate {m3/s}
    0.002030,                !- Heating Maximum Air Flow per Zone Floor Area {m3/s-m2}
    0.141580,                !- Heating Maximum Air Flow {m3/s}
    0.30,                    !- Heating Maximum Air Flow Fraction
    3F:EXRXup Design Specification Zone Air Distribution Object,  !- Design Specification Zone Air Distribution Object Name
    No,                      !- Account for Dedicated Outdoor Air System
    NeutralSupplyAir,        !- Dedicated Outdoor Air System Control Strategy
    autosize,                !- Dedicated Outdoor Air Low Setpoint Temperature for Design {C}
    autosize,                !- Dedicated Outdoor Air High Setpoint Temperature for Design {C}
    Sensible Load Only No Latent Load,  !- Zone Load Sizing Method
    HumidityRatioDifference, !- Zone Latent Cooling Design Supply Air Humidity Ratio Input Method
    ,                        !- Zone Dehumidification Design Supply Air Humidity Ratio {kgWater/kgDryAir}
    0.005,                   !- Zone Cooling Design Supply Air Humidity Ratio Difference {kgWater/kgDryAir}
    HumidityRatioDifference, !- Zone Latent Heating Design Supply Air Humidity Ratio Input Method
    ,                        !- Zone Humidification Design Supply Air Humidity Ratio {kgWater/kgDryAir}
    0.005;                   !- Zone Humidification Design Supply Air Humidity Ratio Difference {kgWater/kgDryAir}

Sizing:Zone,
    3F:UPSXup,               !- Zone or ZoneList Name
    SupplyAirTemperature,    !- Zone Cooling Design Supply Air Temperature Input Method
    16.00,                   !- Zone Cooling Design Supply Air Temperature {C}
    10.00,                   !- Zone Cooling Design Supply Air Temperature Difference {deltaC}
    SupplyAirTemperature,    !- Zone Heating Design Supply Air Temperature Input Method
    50.00,                   !- Zone Heating Design Supply Air Temperature {C}
    10.00,                   !- Zone Heating Design Supply Air Temperature Difference {deltaC}
    0.0090,                  !- Zone Cooling Design Supply Air Humidity Ratio {kgWater/kgDryAir}
    0.0040,                  !- Zone Heating Design Supply Air Humidity Ratio {kgWater/kgDryAir}
    3F:UPSXup Design Specification Outdoor Air Object,  !- Design Specification Outdoor Air Object Name
    1.25,                    !- Zone Heating Sizing Factor
    1.15,                    !- Zone Cooling Sizing Factor
    DesignDay,               !- Cooling Design Air Flow Method
    0.000000,                !- Cooling Design Air Flow Rate {m3/s}
    0.000760,                !- Cooling Minimum Air Flow per Zone Floor Area {m3/s-m2}
    0.000000,                !- Cooling Minimum Air Flow {m3/s}
    0.00,                    !- Cooling Minimum Air Flow Fraction
    DesignDay,               !- Heating Design Air Flow Method
    0.000000,                !- Heating Design Air Flow Rate {m3/s}
    0.002030,                !- Heating Maximum Air Flow per Zone Floor Area {m3/s-m2}
    0.141580,                !- Heating Maximum Air Flow {m3/s}
    0.30,                    !- Heating Maximum Air Flow Fraction
    3F:UPSXup Design Specification Zone Air Distribution Object,  !- Design Specification Zone Air Distribution Object Name
    No,                      !- Account for Dedicated Outdoor Air System
    NeutralSupplyAir,        !- Dedicated Outdoor Air System Control Strategy
    autosize,                !- Dedicated Outdoor Air Low Setpoint Temperature for Design {C}
    autosize,                !- Dedicated Outdoor Air High Setpoint Temperature for Design {C}
    Sensible Load Only No Latent Load,  !- Zone Load Sizing Method
    HumidityRatioDifference, !- Zone Latent Cooling Design Supply Air Humidity Ratio Input Method
    ,                        !- Zone Dehumidification Design Supply Air Humidity Ratio {kgWater/kgDryAir}
    0.005,                   !- Zone Cooling Design Supply Air Humidity Ratio Difference {kgWater/kgDryAir}
    HumidityRatioDifference, !- Zone Latent Heating Design Supply Air Humidity Ratio Input Method
    ,                        !- Zone Humidification Design Supply Air Humidity Ratio {kgWater/kgDryAir}
    0.005;                   !- Zone Humidification Design Supply Air Humidity Ratio Difference {kgWater/kgDryAir}

Sizing:Zone,
    3F:UPSXdown,             !- Zone or ZoneList Name
    SupplyAirTemperature,    !- Zone Cooling Design Supply Air Temperature Input Method
    16.00,                   !- Zone Cooling Design Supply Air Temperature {C}
    10.00,                   !- Zone Cooling Design Supply Air Temperature Difference {deltaC}
    SupplyAirTemperature,    !- Zone Heating Design Supply Air Temperature Input Method
    50.00,                   !- Zone Heating Design Supply Air Temperature {C}
    10.00,                   !- Zone Heating Design Supply Air Temperature Difference {deltaC}
    0.0090,                  !- Zone Cooling Design Supply Air Humidity Ratio {kgWater/kgDryAir}
    0.0040,                  !- Zone Heating Design Supply Air Humidity Ratio {kgWater/kgDryAir}
    3F:UPSXdown Design Specification Outdoor Air Object,  !- Design Specification Outdoor Air Object Name
    1.25,                    !- Zone Heating Sizing Factor
    1.15,                    !- Zone Cooling Sizing Factor
    DesignDay,               !- Cooling Design Air Flow Method
    0.000000,                !- Cooling Design Air Flow Rate {m3/s}
    0.000760,                !- Cooling Minimum Air Flow per Zone Floor Area {m3/s-m2}
    0.000000,                !- Cooling Minimum Air Flow {m3/s}
    0.00,                    !- Cooling Minimum Air Flow Fraction
    DesignDay,               !- Heating Design Air Flow Method
    0.000000,                !- Heating Design Air Flow Rate {m3/s}
    0.002030,                !- Heating Maximum Air Flow per Zone Floor Area {m3/s-m2}
    0.141580,                !- Heating Maximum Air Flow {m3/s}
    0.30,                    !- Heating Maximum Air Flow Fraction
    3F:UPSXdown Design Specification Zone Air Distribution Object,  !- Design Specification Zone Air Distribution Object Name
    No,                      !- Account for Dedicated Outdoor Air System
    NeutralSupplyAir,        !- Dedicated Outdoor Air System Control Strategy
    autosize,                !- Dedicated Outdoor Air Low Setpoint Temperature for Design {C}
    autosize,                !- Dedicated Outdoor Air High Setpoint Temperature for Design {C}
    Sensible Load Only No Latent Load,  !- Zone Load Sizing Method
    HumidityRatioDifference, !- Zone Latent Cooling Design Supply Air Humidity Ratio Input Method
    ,                        !- Zone Dehumidification Design Supply Air Humidity Ratio {kgWater/kgDryAir}
    0.005,                   !- Zone Cooling Design Supply Air Humidity Ratio Difference {kgWater/kgDryAir}
    HumidityRatioDifference, !- Zone Latent Heating Design Supply Air Humidity Ratio Input Method
    ,                        !- Zone Humidification Design Supply Air Humidity Ratio {kgWater/kgDryAir}
    0.005;                   !- Zone Humidification Design Supply Air Humidity Ratio Difference {kgWater/kgDryAir}

Sizing:Zone,
    3F:EXRXdown,             !- Zone or ZoneList Name
    SupplyAirTemperature,    !- Zone Cooling Design Supply Air Temperature Input Method
    16.00,                   !- Zone Cooling Design Supply Air Temperature {C}
    10.00,                   !- Zone Cooling Design Supply Air Temperature Difference {deltaC}
    SupplyAirTemperature,    !- Zone Heating Design Supply Air Temperature Input Method
    50.00,                   !- Zone Heating Design Supply Air Temperature {C}
    10.00,                   !- Zone Heating Design Supply Air Temperature Difference {deltaC}
    0.0090,                  !- Zone Cooling Design Supply Air Humidity Ratio {kgWater/kgDryAir}
    0.0040,                  !- Zone Heating Design Supply Air Humidity Ratio {kgWater/kgDryAir}
    3F:EXRXdown Design Specification Outdoor Air Object,  !- Design Specification Outdoor Air Object Name
    1.25,                    !- Zone Heating Sizing Factor
    1.15,                    !- Zone Cooling Sizing Factor
    DesignDay,               !- Cooling Design Air Flow Method
    0.000000,                !- Cooling Design Air Flow Rate {m3/s}
    0.000760,                !- Cooling Minimum Air Flow per Zone Floor Area {m3/s-m2}
    0.000000,                !- Cooling Minimum Air Flow {m3/s}
    0.00,                    !- Cooling Minimum Air Flow Fraction
    DesignDay,               !- Heating Design Air Flow Method
    0.000000,                !- Heating Design Air Flow Rate {m3/s}
    0.002030,                !- Heating Maximum Air Flow per Zone Floor Area {m3/s-m2}
    0.141580,                !- Heating Maximum Air Flow {m3/s}
    0.30,                    !- Heating Maximum Air Flow Fraction
    3F:EXRXdown Design Specification Zone Air Distribution Object,  !- Design Specification Zone Air Distribution Object Name
    No,                      !- Account for Dedicated Outdoor Air System
    NeutralSupplyAir,        !- Dedicated Outdoor Air System Control Strategy
    autosize,                !- Dedicated Outdoor Air Low Setpoint Temperature for Design {C}
    autosize,                !- Dedicated Outdoor Air High Setpoint Temperature for Design {C}
    Sensible Load Only No Latent Load,  !- Zone Load Sizing Method
    HumidityRatioDifference, !- Zone Latent Cooling Design Supply Air Humidity Ratio Input Method
    ,                        !- Zone Dehumidification Design Supply Air Humidity Ratio {kgWater/kgDryAir}
    0.005,                   !- Zone Cooling Design Supply Air Humidity Ratio Difference {kgWater/kgDryAir}
    HumidityRatioDifference, !- Zone Latent Heating Design Supply Air Humidity Ratio Input Method
    ,                        !- Zone Humidification Design Supply Air Humidity Ratio {kgWater/kgDryAir}
    0.005;                   !- Zone Humidification Design Supply Air Humidity Ratio Difference {kgWater/kgDryAir}

Sizing:Zone,
    3F:BTXRXdown,            !- Zone or ZoneList Name
    SupplyAirTemperature,    !- Zone Cooling Design Supply Air Temperature Input Method
    16.00,                   !- Zone Cooling Design Supply Air Temperature {C}
    10.00,                   !- Zone Cooling Design Supply Air Temperature Difference {deltaC}
    SupplyAirTemperature,    !- Zone Heating Design Supply Air Temperature Input Method
    50.00,                   !- Zone Heating Design Supply Air Temperature {C}
    10.00,                   !- Zone Heating Design Supply Air Temperature Difference {deltaC}
    0.0090,                  !- Zone Cooling Design Supply Air Humidity Ratio {kgWater/kgDryAir}
    0.0040,                  !- Zone Heating Design Supply Air Humidity Ratio {kgWater/kgDryAir}
    3F:BTXRXdown Design Specification Outdoor Air Object,  !- Design Specification Outdoor Air Object Name
    1.25,                    !- Zone Heating Sizing Factor
    1.15,                    !- Zone Cooling Sizing Factor
    DesignDay,               !- Cooling Design Air Flow Method
    0.000000,                !- Cooling Design Air Flow Rate {m3/s}
    0.000760,                !- Cooling Minimum Air Flow per Zone Floor Area {m3/s-m2}
    0.000000,                !- Cooling Minimum Air Flow {m3/s}
    0.00,                    !- Cooling Minimum Air Flow Fraction
    DesignDay,               !- Heating Design Air Flow Method
    0.000000,                !- Heating Design Air Flow Rate {m3/s}
    0.002030,                !- Heating Maximum Air Flow per Zone Floor Area {m3/s-m2}
    0.141580,                !- Heating Maximum Air Flow {m3/s}
    0.30,                    !- Heating Maximum Air Flow Fraction
    3F:BTXRXdown Design Specification Zone Air Distribution Object,  !- Design Specification Zone Air Distribution Object Name
    No,                      !- Account for Dedicated Outdoor Air System
    NeutralSupplyAir,        !- Dedicated Outdoor Air System Control Strategy
    autosize,                !- Dedicated Outdoor Air Low Setpoint Temperature for Design {C}
    autosize,                !- Dedicated Outdoor Air High Setpoint Temperature for Design {C}
    Sensible Load Only No Latent Load,  !- Zone Load Sizing Method
    HumidityRatioDifference, !- Zone Latent Cooling Design Supply Air Humidity Ratio Input Method
    ,                        !- Zone Dehumidification Design Supply Air Humidity Ratio {kgWater/kgDryAir}
    0.005,                   !- Zone Cooling Design Supply Air Humidity Ratio Difference {kgWater/kgDryAir}
    HumidityRatioDifference, !- Zone Latent Heating Design Supply Air Humidity Ratio Input Method
    ,                        !- Zone Humidification Design Supply Air Humidity Ratio {kgWater/kgDryAir}
    0.005;                   !- Zone Humidification Design Supply Air Humidity Ratio Difference {kgWater/kgDryAir}


!-   ===========  ALL OBJECTS IN CLASS: SIZING:SYSTEM ===========

! Start detailed HVAC data definition
Sizing:System,
    Air Loop,                !- AirLoop Name
    Sensible,                !- Type of Load to Size On
    autosize,                !- Design Outdoor Air Flow Rate {m3/s}
    autosize,                !- Central Heating Maximum System Air Flow Ratio
    5.00,                    !- Preheat Design Temperature {C}
    0.00800,                 !- Preheat Design Humidity Ratio {kgWater/kgDryAir}
    11.00,                   !- Precool Design Temperature {C}
    0.00800,                 !- Precool Design Humidity Ratio {kgWater/kgDryAir}
    12.00,                   !- Central Cooling Design Supply Air Temperature {C}
    16.00,                   !- Central Heating Design Supply Air Temperature {C}
    Coincident,              !- Type of Zone Sum to Use
    No,                      !- 100% Outdoor Air in Cooling
    No,                      !- 100% Outdoor Air in Heating
    0.00800,                 !- Central Cooling Design Supply Air Humidity Ratio {kgWater/kgDryAir}
    0.00800,                 !- Central Heating Design Supply Air Humidity Ratio {kgWater/kgDryAir}
    Designday,               !- Cooling Supply Air Flow Rate Method
    ,                        !- Cooling Supply Air Flow Rate {m3/s}
    ,                        !- Cooling Supply Air Flow Rate Per Floor Area {m3/s-m2}
    ,                        !- Cooling Fraction of Autosized Cooling Supply Air Flow Rate
    ,                        !- Cooling Supply Air Flow Rate Per Unit Cooling Capacity {m3/s-W}
    Designday,               !- Heating Supply Air Flow Rate Method
    ,                        !- Heating Supply Air Flow Rate {m3/s}
    ,                        !- Heating Supply Air Flow Rate Per Floor Area {m3/s-m2}
    ,                        !- Heating Fraction of Autosized Heating Supply Air Flow Rate
    ,                        !- Heating Fraction of Autosized Cooling Supply Air Flow Rate
    ,                        !- Heating Supply Air Flow Rate Per Unit Heating Capacity {m3/s-W}
    ZoneSum,                 !- System Outdoor Air Method
    1.0000,                  !- Zone Maximum Outdoor Air Fraction {dimensionless}
    CoolingDesignCapacity,   !- Cooling Design Capacity Method
    autosize,                !- Cooling Design Capacity {W}
    ,                        !- Cooling Design Capacity Per Floor Area {W/m2}
    ,                        !- Fraction of Autosized Cooling Design Capacity
    HeatingDesignCapacity,   !- Heating Design Capacity Method
    autosize,                !- Heating Design Capacity {W}
    ,                        !- Heating Design Capacity Per Floor Area {W/m2}
    ,                        !- Fraction of Autosized Heating Design Capacity
    VAV;                     !- Central Cooling Capacity Control Method


!-   ===========  ALL OBJECTS IN CLASS: SIZING:PLANT ===========

Sizing:Plant,
    CHW Loop,                !- Plant or Condenser Loop Name
    Cooling,                 !- Loop Type
    10.00,                   !- Design Loop Exit Temperature {C}
    5.00;                    !- Loop Design Temperature Difference {deltaC}

Sizing:Plant,
    Condenser Loop,          !- Plant or Condenser Loop Name
    Condenser,               !- Loop Type
    32.00,                   !- Design Loop Exit Temperature {C}
    5.00;                    !- Loop Design Temperature Difference {deltaC}

Sizing:Plant,
    Condenser Loop 1,        !- Plant or Condenser Loop Name
    Condenser,               !- Loop Type
    16.00,                   !- Design Loop Exit Temperature {C}
    5.00;                    !- Loop Design Temperature Difference {deltaC}

Sizing:Plant,
    CHW Loop 1,              !- Plant or Condenser Loop Name
    Cooling,                 !- Loop Type
    5.00,                    !- Design Loop Exit Temperature {C}
    5.00;                    !- Loop Design Temperature Difference {deltaC}

Sizing:Plant,
    Condenser Loop 2,        !- Plant or Condenser Loop Name
    Condenser,               !- Loop Type
    32.00,                   !- Design Loop Exit Temperature {C}
    5.00;                    !- Loop Design Temperature Difference {deltaC}

Sizing:Plant,
    Condenser Loop 3,        !- Plant or Condenser Loop Name
    Condenser,               !- Loop Type
    16.00,                   !- Design Loop Exit Temperature {C}
    5.00;                    !- Loop Design Temperature Difference {deltaC}


!-   ===========  ALL OBJECTS IN CLASS: ZONECONTROL:THERMOSTAT ===========

ZoneControl:Thermostat,
    3F:DC Thermostat,        !- Name
    3F:DC,                   !- Zone or ZoneList Name
    Control type schedule: Always 4,  !- Control Type Schedule Name
    ThermostatSetpoint:DualSetpoint,  !- Control 1 Object Type
    3F:DC Dual SP;           !- Control 1 Name

ZoneControl:Thermostat,
    3F:BTXRXup Thermostat,   !- Name
    3F:BTXRXup,              !- Zone or ZoneList Name
    Control type schedule: Always 4,  !- Control Type Schedule Name
    ThermostatSetpoint:DualSetpoint,  !- Control 1 Object Type
    3F:BTXRXup Dual SP;      !- Control 1 Name

ZoneControl:Thermostat,
    3F:EXRXup Thermostat,    !- Name
    3F:EXRXup,               !- Zone or ZoneList Name
    Control type schedule: Always 4,  !- Control Type Schedule Name
    ThermostatSetpoint:DualSetpoint,  !- Control 1 Object Type
    3F:EXRXup Dual SP;       !- Control 1 Name

ZoneControl:Thermostat,
    3F:UPSXup Thermostat,    !- Name
    3F:UPSXup,               !- Zone or ZoneList Name
    Control type schedule: Always 4,  !- Control Type Schedule Name
    ThermostatSetpoint:DualSetpoint,  !- Control 1 Object Type
    3F:UPSXup Dual SP;       !- Control 1 Name

ZoneControl:Thermostat,
    3F:UPSXdown Thermostat,  !- Name
    3F:UPSXdown,             !- Zone or ZoneList Name
    Control type schedule: Always 4,  !- Control Type Schedule Name
    ThermostatSetpoint:DualSetpoint,  !- Control 1 Object Type
    3F:UPSXdown Dual SP;     !- Control 1 Name

ZoneControl:Thermostat,
    3F:EXRXdown Thermostat,  !- Name
    3F:EXRXdown,             !- Zone or ZoneList Name
    Control type schedule: Always 4,  !- Control Type Schedule Name
    ThermostatSetpoint:DualSetpoint,  !- Control 1 Object Type
    3F:EXRXdown Dual SP;     !- Control 1 Name

ZoneControl:Thermostat,
    3F:BTXRXdown Thermostat, !- Name
    3F:BTXRXdown,            !- Zone or ZoneList Name
    Control type schedule: Always 4,  !- Control Type Schedule Name
    ThermostatSetpoint:DualSetpoint,  !- Control 1 Object Type
    3F:BTXRXdown Dual SP;    !- Control 1 Name


!-   ===========  ALL OBJECTS IN CLASS: THERMOSTATSETPOINT:DUALSETPOINT ===========

ThermostatSetpoint:DualSetpoint,
    3F:DC Dual SP,           !- Name
    3F:DC Heating Setpoint Schedule,  !- Heating Setpoint Temperature Schedule Name
    3F:DC Cooling Setpoint Schedule;  !- Cooling Setpoint Temperature Schedule Name

ThermostatSetpoint:DualSetpoint,
    3F:BTXRXup Dual SP,      !- Name
    3F:BTXRXup Heating Setpoint Schedule,  !- Heating Setpoint Temperature Schedule Name
    3F:BTXRXup Cooling Setpoint Schedule;  !- Cooling Setpoint Temperature Schedule Name

ThermostatSetpoint:DualSetpoint,
    3F:EXRXup Dual SP,       !- Name
    3F:EXRXup Heating Setpoint Schedule,  !- Heating Setpoint Temperature Schedule Name
    3F:EXRXup Cooling Setpoint Schedule;  !- Cooling Setpoint Temperature Schedule Name

ThermostatSetpoint:DualSetpoint,
    3F:UPSXup Dual SP,       !- Name
    3F:UPSXup Heating Setpoint Schedule,  !- Heating Setpoint Temperature Schedule Name
    3F:UPSXup Cooling Setpoint Schedule;  !- Cooling Setpoint Temperature Schedule Name

ThermostatSetpoint:DualSetpoint,
    3F:UPSXdown Dual SP,     !- Name
    3F:UPSXdown Heating Setpoint Schedule,  !- Heating Setpoint Temperature Schedule Name
    3F:UPSXdown Cooling Setpoint Schedule;  !- Cooling Setpoint Temperature Schedule Name

ThermostatSetpoint:DualSetpoint,
    3F:EXRXdown Dual SP,     !- Name
    3F:EXRXdown Heating Setpoint Schedule,  !- Heating Setpoint Temperature Schedule Name
    3F:EXRXdown Cooling Setpoint Schedule;  !- Cooling Setpoint Temperature Schedule Name

ThermostatSetpoint:DualSetpoint,
    3F:BTXRXdown Dual SP,    !- Name
    3F:BTXRXdown Heating Setpoint Schedule,  !- Heating Setpoint Temperature Schedule Name
    3F:BTXRXdown Cooling Setpoint Schedule;  !- Cooling Setpoint Temperature Schedule Name


!-   ===========  ALL OBJECTS IN CLASS: AIRTERMINAL:SINGLEDUCT:VAV:NOREHEAT ===========

AirTerminal:SingleDuct:VAV:NoReheat,
    3F:DC Single Duct VAV No Reheat,  !- Name
    On 24/7,                 !- Availability Schedule Name
    3F:DC Single Duct VAV No Reheat Supply Outlet,  !- Air Outlet Node Name
    Air Loop Zone Splitter Outlet Node 1,  !- Air Inlet Node Name
    autosize,                !- Maximum Air Flow Rate {m3/s}
    Constant,                !- Zone Minimum Air Flow Input Method
    0.300,                   !- Constant Minimum Air Flow Fraction
    0.100000,                !- Fixed Minimum Air Flow Rate {m3/s}
    Min supply air flow fraction schedule: Always 0.3;  !- Minimum Air Flow Fraction Schedule Name

AirTerminal:SingleDuct:VAV:NoReheat,
    3F:BTXRXup Single Duct VAV No Reheat,  !- Name
    On 24/7,                 !- Availability Schedule Name
    3F:BTXRXup Single Duct VAV No Reheat Supply Outlet,  !- Air Outlet Node Name
    Air Loop Zone Splitter Outlet Node 2,  !- Air Inlet Node Name
    autosize,                !- Maximum Air Flow Rate {m3/s}
    Constant,                !- Zone Minimum Air Flow Input Method
    0.300,                   !- Constant Minimum Air Flow Fraction
    0.100000,                !- Fixed Minimum Air Flow Rate {m3/s}
    Min supply air flow fraction schedule: Always 0.3;  !- Minimum Air Flow Fraction Schedule Name

AirTerminal:SingleDuct:VAV:NoReheat,
    3F:EXRXup Single Duct VAV No Reheat,  !- Name
    On 24/7,                 !- Availability Schedule Name
    3F:EXRXup Single Duct VAV No Reheat Supply Outlet,  !- Air Outlet Node Name
    Air Loop Zone Splitter Outlet Node 3,  !- Air Inlet Node Name
    autosize,                !- Maximum Air Flow Rate {m3/s}
    Constant,                !- Zone Minimum Air Flow Input Method
    0.300,                   !- Constant Minimum Air Flow Fraction
    0.100000,                !- Fixed Minimum Air Flow Rate {m3/s}
    Min supply air flow fraction schedule: Always 0.3;  !- Minimum Air Flow Fraction Schedule Name

AirTerminal:SingleDuct:VAV:NoReheat,
    3F:UPSXup Single Duct VAV No Reheat,  !- Name
    On 24/7,                 !- Availability Schedule Name
    3F:UPSXup Single Duct VAV No Reheat Supply Outlet,  !- Air Outlet Node Name
    Air Loop Zone Splitter Outlet Node 4,  !- Air Inlet Node Name
    autosize,                !- Maximum Air Flow Rate {m3/s}
    Constant,                !- Zone Minimum Air Flow Input Method
    0.300,                   !- Constant Minimum Air Flow Fraction
    0.100000,                !- Fixed Minimum Air Flow Rate {m3/s}
    Min supply air flow fraction schedule: Always 0.3;  !- Minimum Air Flow Fraction Schedule Name

AirTerminal:SingleDuct:VAV:NoReheat,
    3F:UPSXdown Single Duct VAV No Reheat,  !- Name
    On 24/7,                 !- Availability Schedule Name
    3F:UPSXdown Single Duct VAV No Reheat Supply Outlet,  !- Air Outlet Node Name
    Air Loop Zone Splitter Outlet Node 5,  !- Air Inlet Node Name
    autosize,                !- Maximum Air Flow Rate {m3/s}
    Constant,                !- Zone Minimum Air Flow Input Method
    0.300,                   !- Constant Minimum Air Flow Fraction
    0.100000,                !- Fixed Minimum Air Flow Rate {m3/s}
    Min supply air flow fraction schedule: Always 0.3;  !- Minimum Air Flow Fraction Schedule Name

AirTerminal:SingleDuct:VAV:NoReheat,
    3F:EXRXdown Single Duct VAV No Reheat,  !- Name
    On 24/7,                 !- Availability Schedule Name
    3F:EXRXdown Single Duct VAV No Reheat Supply Outlet,  !- Air Outlet Node Name
    Air Loop Zone Splitter Outlet Node 6,  !- Air Inlet Node Name
    autosize,                !- Maximum Air Flow Rate {m3/s}
    Constant,                !- Zone Minimum Air Flow Input Method
    0.300,                   !- Constant Minimum Air Flow Fraction
    0.100000,                !- Fixed Minimum Air Flow Rate {m3/s}
    Min supply air flow fraction schedule: Always 0.3;  !- Minimum Air Flow Fraction Schedule Name

AirTerminal:SingleDuct:VAV:NoReheat,
    3F:BTXRXdown Single Duct VAV No Reheat,  !- Name
    On 24/7,                 !- Availability Schedule Name
    3F:BTXRXdown Single Duct VAV No Reheat Supply Outlet,  !- Air Outlet Node Name
    Air Loop Zone Splitter Outlet Node 7,  !- Air Inlet Node Name
    autosize,                !- Maximum Air Flow Rate {m3/s}
    Constant,                !- Zone Minimum Air Flow Input Method
    0.300,                   !- Constant Minimum Air Flow Fraction
    0.100000,                !- Fixed Minimum Air Flow Rate {m3/s}
    Min supply air flow fraction schedule: Always 0.3;  !- Minimum Air Flow Fraction Schedule Name


!-   ===========  ALL OBJECTS IN CLASS: ZONEHVAC:AIRDISTRIBUTIONUNIT ===========

ZoneHVAC:AirDistributionUnit,
    3F:DC Single Duct VAV No Reheat ADU,  !- Name
    3F:DC Single Duct VAV No Reheat Supply Outlet,  !- Air Distribution Unit Outlet Node Name
    AirTerminal:SingleDuct:VAV:NoReheat,  !- Air Terminal Object Type
    3F:DC Single Duct VAV No Reheat,  !- Air Terminal Name
    0.0,                     !- Nominal Upstream Leakage Fraction
    0.0;                     !- Constant Downstream Leakage Fraction

ZoneHVAC:AirDistributionUnit,
    3F:BTXRXup Single Duct VAV No Reheat ADU,  !- Name
    3F:BTXRXup Single Duct VAV No Reheat Supply Outlet,  !- Air Distribution Unit Outlet Node Name
    AirTerminal:SingleDuct:VAV:NoReheat,  !- Air Terminal Object Type
    3F:BTXRXup Single Duct VAV No Reheat,  !- Air Terminal Name
    0.0,                     !- Nominal Upstream Leakage Fraction
    0.0;                     !- Constant Downstream Leakage Fraction

ZoneHVAC:AirDistributionUnit,
    3F:EXRXup Single Duct VAV No Reheat ADU,  !- Name
    3F:EXRXup Single Duct VAV No Reheat Supply Outlet,  !- Air Distribution Unit Outlet Node Name
    AirTerminal:SingleDuct:VAV:NoReheat,  !- Air Terminal Object Type
    3F:EXRXup Single Duct VAV No Reheat,  !- Air Terminal Name
    0.0,                     !- Nominal Upstream Leakage Fraction
    0.0;                     !- Constant Downstream Leakage Fraction

ZoneHVAC:AirDistributionUnit,
    3F:UPSXup Single Duct VAV No Reheat ADU,  !- Name
    3F:UPSXup Single Duct VAV No Reheat Supply Outlet,  !- Air Distribution Unit Outlet Node Name
    AirTerminal:SingleDuct:VAV:NoReheat,  !- Air Terminal Object Type
    3F:UPSXup Single Duct VAV No Reheat,  !- Air Terminal Name
    0.0,                     !- Nominal Upstream Leakage Fraction
    0.0;                     !- Constant Downstream Leakage Fraction

ZoneHVAC:AirDistributionUnit,
    3F:UPSXdown Single Duct VAV No Reheat ADU,  !- Name
    3F:UPSXdown Single Duct VAV No Reheat Supply Outlet,  !- Air Distribution Unit Outlet Node Name
    AirTerminal:SingleDuct:VAV:NoReheat,  !- Air Terminal Object Type
    3F:UPSXdown Single Duct VAV No Reheat,  !- Air Terminal Name
    0.0,                     !- Nominal Upstream Leakage Fraction
    0.0;                     !- Constant Downstream Leakage Fraction

ZoneHVAC:AirDistributionUnit,
    3F:EXRXdown Single Duct VAV No Reheat ADU,  !- Name
    3F:EXRXdown Single Duct VAV No Reheat Supply Outlet,  !- Air Distribution Unit Outlet Node Name
    AirTerminal:SingleDuct:VAV:NoReheat,  !- Air Terminal Object Type
    3F:EXRXdown Single Duct VAV No Reheat,  !- Air Terminal Name
    0.0,                     !- Nominal Upstream Leakage Fraction
    0.0;                     !- Constant Downstream Leakage Fraction

ZoneHVAC:AirDistributionUnit,
    3F:BTXRXdown Single Duct VAV No Reheat ADU,  !- Name
    3F:BTXRXdown Single Duct VAV No Reheat Supply Outlet,  !- Air Distribution Unit Outlet Node Name
    AirTerminal:SingleDuct:VAV:NoReheat,  !- Air Terminal Object Type
    3F:BTXRXdown Single Duct VAV No Reheat,  !- Air Terminal Name
    0.0,                     !- Nominal Upstream Leakage Fraction
    0.0;                     !- Constant Downstream Leakage Fraction


!-   ===========  ALL OBJECTS IN CLASS: ZONEHVAC:EQUIPMENTLIST ===========

ZoneHVAC:EquipmentList,
    3F:DC Equipment,         !- Name
    SequentialLoad,          !- Load Distribution Scheme
    ZoneHVAC:AirDistributionUnit,  !- Zone Equipment 1 Object Type
    3F:DC Single Duct VAV No Reheat ADU,  !- Zone Equipment 1 Name
    1,                       !- Zone Equipment 1 Cooling Sequence
    1,                       !- Zone Equipment 1 Heating or No-Load Sequence
    Cooling fraction schedule,  !- Zone Equipment 1 Sequential Cooling Fraction Schedule Name
    Heating fraction schedule;  !- Zone Equipment 1 Sequential Heating Fraction Schedule Name

ZoneHVAC:EquipmentList,
    3F:BTXRXup Equipment,    !- Name
    SequentialLoad,          !- Load Distribution Scheme
    ZoneHVAC:AirDistributionUnit,  !- Zone Equipment 1 Object Type
    3F:BTXRXup Single Duct VAV No Reheat ADU,  !- Zone Equipment 1 Name
    1,                       !- Zone Equipment 1 Cooling Sequence
    1,                       !- Zone Equipment 1 Heating or No-Load Sequence
    Cooling fraction schedule,  !- Zone Equipment 1 Sequential Cooling Fraction Schedule Name
    Heating fraction schedule;  !- Zone Equipment 1 Sequential Heating Fraction Schedule Name

ZoneHVAC:EquipmentList,
    3F:EXRXup Equipment,     !- Name
    SequentialLoad,          !- Load Distribution Scheme
    ZoneHVAC:AirDistributionUnit,  !- Zone Equipment 1 Object Type
    3F:EXRXup Single Duct VAV No Reheat ADU,  !- Zone Equipment 1 Name
    1,                       !- Zone Equipment 1 Cooling Sequence
    1,                       !- Zone Equipment 1 Heating or No-Load Sequence
    Cooling fraction schedule,  !- Zone Equipment 1 Sequential Cooling Fraction Schedule Name
    Heating fraction schedule;  !- Zone Equipment 1 Sequential Heating Fraction Schedule Name

ZoneHVAC:EquipmentList,
    3F:UPSXup Equipment,     !- Name
    SequentialLoad,          !- Load Distribution Scheme
    ZoneHVAC:AirDistributionUnit,  !- Zone Equipment 1 Object Type
    3F:UPSXup Single Duct VAV No Reheat ADU,  !- Zone Equipment 1 Name
    1,                       !- Zone Equipment 1 Cooling Sequence
    1,                       !- Zone Equipment 1 Heating or No-Load Sequence
    Cooling fraction schedule,  !- Zone Equipment 1 Sequential Cooling Fraction Schedule Name
    Heating fraction schedule;  !- Zone Equipment 1 Sequential Heating Fraction Schedule Name

ZoneHVAC:EquipmentList,
    3F:UPSXdown Equipment,   !- Name
    SequentialLoad,          !- Load Distribution Scheme
    ZoneHVAC:AirDistributionUnit,  !- Zone Equipment 1 Object Type
    3F:UPSXdown Single Duct VAV No Reheat ADU,  !- Zone Equipment 1 Name
    1,                       !- Zone Equipment 1 Cooling Sequence
    1,                       !- Zone Equipment 1 Heating or No-Load Sequence
    Cooling fraction schedule,  !- Zone Equipment 1 Sequential Cooling Fraction Schedule Name
    Heating fraction schedule;  !- Zone Equipment 1 Sequential Heating Fraction Schedule Name

ZoneHVAC:EquipmentList,
    3F:EXRXdown Equipment,   !- Name
    SequentialLoad,          !- Load Distribution Scheme
    ZoneHVAC:AirDistributionUnit,  !- Zone Equipment 1 Object Type
    3F:EXRXdown Single Duct VAV No Reheat ADU,  !- Zone Equipment 1 Name
    1,                       !- Zone Equipment 1 Cooling Sequence
    1,                       !- Zone Equipment 1 Heating or No-Load Sequence
    Cooling fraction schedule,  !- Zone Equipment 1 Sequential Cooling Fraction Schedule Name
    Heating fraction schedule;  !- Zone Equipment 1 Sequential Heating Fraction Schedule Name

ZoneHVAC:EquipmentList,
    3F:BTXRXdown Equipment,  !- Name
    SequentialLoad,          !- Load Distribution Scheme
    ZoneHVAC:AirDistributionUnit,  !- Zone Equipment 1 Object Type
    3F:BTXRXdown Single Duct VAV No Reheat ADU,  !- Zone Equipment 1 Name
    1,                       !- Zone Equipment 1 Cooling Sequence
    1,                       !- Zone Equipment 1 Heating or No-Load Sequence
    Cooling fraction schedule,  !- Zone Equipment 1 Sequential Cooling Fraction Schedule Name
    Heating fraction schedule;  !- Zone Equipment 1 Sequential Heating Fraction Schedule Name


!-   ===========  ALL OBJECTS IN CLASS: ZONEHVAC:EQUIPMENTCONNECTIONS ===========

ZoneHVAC:EquipmentConnections,
    3F:DC,                   !- Zone Name
    3F:DC Equipment,         !- Zone Conditioning Equipment List Name
    3F:DC Air Inlet Node List,  !- Zone Air Inlet Node or NodeList Name
    ,                        !- Zone Air Exhaust Node or NodeList Name
    3F:DC Zone Air Node,     !- Zone Air Node Name
    Air Loop Zone Mixer Inlet Node 1;  !- Zone Return Air Node or NodeList Name

ZoneHVAC:EquipmentConnections,
    3F:BTXRXup,              !- Zone Name
    3F:BTXRXup Equipment,    !- Zone Conditioning Equipment List Name
    3F:BTXRXup Air Inlet Node List,  !- Zone Air Inlet Node or NodeList Name
    ,                        !- Zone Air Exhaust Node or NodeList Name
    3F:BTXRXup Zone Air Node,!- Zone Air Node Name
    Air Loop Zone Mixer Inlet Node 2;  !- Zone Return Air Node or NodeList Name

ZoneHVAC:EquipmentConnections,
    3F:EXRXup,               !- Zone Name
    3F:EXRXup Equipment,     !- Zone Conditioning Equipment List Name
    3F:EXRXup Air Inlet Node List,  !- Zone Air Inlet Node or NodeList Name
    ,                        !- Zone Air Exhaust Node or NodeList Name
    3F:EXRXup Zone Air Node, !- Zone Air Node Name
    Air Loop Zone Mixer Inlet Node 3;  !- Zone Return Air Node or NodeList Name

ZoneHVAC:EquipmentConnections,
    3F:UPSXup,               !- Zone Name
    3F:UPSXup Equipment,     !- Zone Conditioning Equipment List Name
    3F:UPSXup Air Inlet Node List,  !- Zone Air Inlet Node or NodeList Name
    ,                        !- Zone Air Exhaust Node or NodeList Name
    3F:UPSXup Zone Air Node, !- Zone Air Node Name
    Air Loop Zone Mixer Inlet Node 4;  !- Zone Return Air Node or NodeList Name

ZoneHVAC:EquipmentConnections,
    3F:UPSXdown,             !- Zone Name
    3F:UPSXdown Equipment,   !- Zone Conditioning Equipment List Name
    3F:UPSXdown Air Inlet Node List,  !- Zone Air Inlet Node or NodeList Name
    ,                        !- Zone Air Exhaust Node or NodeList Name
    3F:UPSXdown Zone Air Node,  !- Zone Air Node Name
    Air Loop Zone Mixer Inlet Node 5;  !- Zone Return Air Node or NodeList Name

ZoneHVAC:EquipmentConnections,
    3F:EXRXdown,             !- Zone Name
    3F:EXRXdown Equipment,   !- Zone Conditioning Equipment List Name
    3F:EXRXdown Air Inlet Node List,  !- Zone Air Inlet Node or NodeList Name
    ,                        !- Zone Air Exhaust Node or NodeList Name
    3F:EXRXdown Zone Air Node,  !- Zone Air Node Name
    Air Loop Zone Mixer Inlet Node 6;  !- Zone Return Air Node or NodeList Name

ZoneHVAC:EquipmentConnections,
    3F:BTXRXdown,            !- Zone Name
    3F:BTXRXdown Equipment,  !- Zone Conditioning Equipment List Name
    3F:BTXRXdown Air Inlet Node List,  !- Zone Air Inlet Node or NodeList Name
    ,                        !- Zone Air Exhaust Node or NodeList Name
    3F:BTXRXdown Zone Air Node,  !- Zone Air Node Name
    Air Loop Zone Mixer Inlet Node 7;  !- Zone Return Air Node or NodeList Name


!-   ===========  ALL OBJECTS IN CLASS: FAN:VARIABLEVOLUME ===========

Fan:VariableVolume,
    Air Loop AHU Extract Fan,!- Name
    On 24/7,                 !- Availability Schedule Name
    0.700000,                !- Fan Total Efficiency
    200.00,                  !- Pressure Rise {Pa}
    120.000000,              !- Maximum Flow Rate {m3/s}
    Fraction,                !- Fan Power Minimum Flow Rate Input Method
    0.2500,                  !- Fan Power Minimum Flow Fraction
    0.000000,                !- Fan Power Minimum Air Flow Rate {m3/s}
    0.900000,                !- Motor Efficiency
    1.00,                    !- Motor In Airstream Fraction
    0.3507122300,            !- Fan Power Coefficient 1
    0.3085053500,            !- Fan Power Coefficient 2
    -0.5413736400,           !- Fan Power Coefficient 3
    0.8719882300,            !- Fan Power Coefficient 4
    0.0000000000,            !- Fan Power Coefficient 5
    Air Loop Supply Side Inlet,  !- Air Inlet Node Name
    Air Loop AHU Extract Fan Air Outlet Node,  !- Air Outlet Node Name
    General;                 !- End-Use Subcategory

Fan:VariableVolume,
    Air Loop AHU Supply Fan, !- Name
    On 24/7,                 !- Availability Schedule Name
    0.700000,                !- Fan Total Efficiency
    200.00,                  !- Pressure Rise {Pa}
    120.000000,              !- Maximum Flow Rate {m3/s}
    Fraction,                !- Fan Power Minimum Flow Rate Input Method
    0.2500,                  !- Fan Power Minimum Flow Fraction
    0.000000,                !- Fan Power Minimum Air Flow Rate {m3/s}
    0.900000,                !- Motor Efficiency
    1.00,                    !- Motor In Airstream Fraction
    0.3507122300,            !- Fan Power Coefficient 1
    0.3085053500,            !- Fan Power Coefficient 2
    -0.5413736400,           !- Fan Power Coefficient 3
    0.8719882300,            !- Fan Power Coefficient 4
    0.0000000000,            !- Fan Power Coefficient 5
    Air Loop AHU Cooling Coil Air Outlet Node,  !- Air Inlet Node Name
    Air Loop Supply Side Outlet 1,  !- Air Outlet Node Name
    General;                 !- End-Use Subcategory


!-   ===========  ALL OBJECTS IN CLASS: COIL:COOLING:WATER ===========

Coil:Cooling:Water,
    Air Loop AHU Cooling Coil,  !- Name
    On 24/7,                 !- Availability Schedule Name
    autosize,                !- Design Water Flow Rate {m3/s}
    autosize,                !- Design Air Flow Rate {m3/s}
    autosize,                !- Design Inlet Water Temperature {C}
    autosize,                !- Design Inlet Air Temperature {C}
    autosize,                !- Design Outlet Air Temperature {C}
    autosize,                !- Design Inlet Air Humidity Ratio {kgWater/kgDryAir}
    autosize,                !- Design Outlet Air Humidity Ratio {kgWater/kgDryAir}
    Air Loop AHU Cooling Coil Water Inlet Node,  !- Water Inlet Node Name
    Air Loop AHU Cooling Coil Water Outlet Node,  !- Water Outlet Node Name
    Air Loop AHU Mixed Air Outlet,  !- Air Inlet Node Name
    Air Loop AHU Cooling Coil Air Outlet Node,  !- Air Outlet Node Name
    SimpleAnalysis,          !- Type of Analysis
    CrossFlow;               !- Heat Exchanger Configuration


!-   ===========  ALL OBJECTS IN CLASS: CONTROLLER:WATERCOIL ===========

Controller:WaterCoil,
    Air Loop AHU Cooling Coil Controller,  !- Name
    Temperature,             !- Control Variable
    Reverse,                 !- Action
    Flow,                    !- Actuator Variable
    Air Loop AHU Cooling Coil Air Outlet Node,  !- Sensor Node Name
    Air Loop AHU Cooling Coil Water Inlet Node,  !- Actuator Node Name
    autosize,                !- Controller Convergence Tolerance {deltaC}
    autosize,                !- Maximum Actuated Flow {m3/s}
    0.000000;                !- Minimum Actuated Flow {m3/s}


!-   ===========  ALL OBJECTS IN CLASS: CONTROLLER:OUTDOORAIR ===========

Controller:OutdoorAir,
    Air Loop AHU Outdoor Air Controller,  !- Name
    Air Loop AHU Relief Air Outlet,  !- Relief Air Outlet Node Name
    Air Loop AHU Extract Fan Air Outlet Node,  !- Return Air Node Name
    Air Loop AHU Mixed Air Outlet,  !- Mixed Air Node Name
    Air Loop AHU Outdoor Air Inlet,  !- Actuator Node Name
    autosize,                !- Minimum Outdoor Air Flow Rate {m3/s}
    autosize,                !- Maximum Outdoor Air Flow Rate {m3/s}
    NoEconomizer,            !- Economizer Control Type
    ModulateFlow,            !- Economizer Control Action Type
    ,                        !- Economizer Maximum Limit Dry-Bulb Temperature {C}
    ,                        !- Economizer Maximum Limit Enthalpy {J/kg}
    ,                        !- Economizer Maximum Limit Dewpoint Temperature {C}
    ,                        !- Electronic Enthalpy Limit Curve Name
    ,                        !- Economizer Minimum Limit Dry-Bulb Temperature {C}
    NoLockout,               !- Lockout Type
    FixedMinimum,            !- Minimum Limit Type
    ,                        !- Minimum Outdoor Air Schedule Name
    ,                        !- Minimum Fraction of Outdoor Air Schedule Name
    ,                        !- Maximum Fraction of Outdoor Air Schedule Name
    ,                        !- Mechanical Ventilation Controller Name
    ,                        !- Time of Day Economizer Control Schedule Name
    No,                      !- High Humidity Control
    ,                        !- Humidistat Control Zone Name
    1,                       !- High Humidity Outdoor Air Flow Ratio
    Yes,                     !- Control High Indoor Humidity Based on Outdoor Humidity Ratio
    BypassWhenWithinEconomizerLimits;  !- Heat Recovery Bypass Control Type


!-   ===========  ALL OBJECTS IN CLASS: AIRLOOPHVAC:CONTROLLERLIST ===========

AirLoopHVAC:ControllerList,
    Air Loop AHU Outdoor air Controller List,  !- Name
    Controller:OutdoorAir,   !- Controller 1 Object Type
    Air Loop AHU Outdoor Air Controller;  !- Controller 1 Name

AirLoopHVAC:ControllerList,
    Air Loop Controllers,    !- Name
    Controller:WaterCoil,    !- Controller 1 Object Type
    Air Loop AHU Cooling Coil Controller;  !- Controller 1 Name


!-   ===========  ALL OBJECTS IN CLASS: AIRLOOPHVAC ===========

AirLoopHVAC,
    Air Loop,                !- Name
    Air Loop Controllers,    !- Controller List Name
    Air Loop AvailabilityManager List,  !- Availability Manager List Name
    120.0000,                !- Design Supply Air Flow Rate {m3/s}
    Air Loop Branches,       !- Branch List Name
    ,                        !- Connector List Name
    Air Loop Supply Side Inlet,  !- Supply Side Inlet Node Name
    Air Loop Demand Side Outlet,  !- Demand Side Outlet Node Name
    Air Loop Demand Side Inlet List,  !- Demand Side Inlet Node Names
    Air Loop Supply Side Outlet List;  !- Supply Side Outlet Node Names


!-   ===========  ALL OBJECTS IN CLASS: AIRLOOPHVAC:OUTDOORAIRSYSTEM:EQUIPMENTLIST ===========

AirLoopHVAC:OutdoorAirSystem:EquipmentList,
    Air Loop AHU Outdoor air Equipment List,  !- Name
    OutdoorAir:Mixer,        !- Component 1 Object Type
    Air Loop AHU Outdoor Air Mixer;  !- Component 1 Name


!-   ===========  ALL OBJECTS IN CLASS: AIRLOOPHVAC:OUTDOORAIRSYSTEM ===========

AirLoopHVAC:OutdoorAirSystem,
    Air Loop AHU Outdoor air system,  !- Name
    Air Loop AHU Outdoor air Controller List,  !- Controller List Name
    Air Loop AHU Outdoor air Equipment List;  !- Outdoor Air Equipment List Name


!-   ===========  ALL OBJECTS IN CLASS: OUTDOORAIR:MIXER ===========

OutdoorAir:Mixer,
    Air Loop AHU Outdoor Air Mixer,  !- Name
    Air Loop AHU Mixed Air Outlet,  !- Mixed Air Node Name
    Air Loop AHU Outdoor Air Inlet,  !- Outdoor Air Stream Node Name
    Air Loop AHU Relief Air Outlet,  !- Relief Air Stream Node Name
    Air Loop AHU Extract Fan Air Outlet Node;  !- Return Air Stream Node Name


!-   ===========  ALL OBJECTS IN CLASS: AIRLOOPHVAC:ZONESPLITTER ===========

AirLoopHVAC:ZoneSplitter,
    Air Loop Zone Splitter,  !- Name
    Air Loop Demand Side Inlet 1,  !- Inlet Node Name
    Air Loop Zone Splitter Outlet Node 1,  !- Outlet 1 Node Name
    Air Loop Zone Splitter Outlet Node 2,  !- Outlet 2 Node Name
    Air Loop Zone Splitter Outlet Node 3,  !- Outlet 3 Node Name
    Air Loop Zone Splitter Outlet Node 4,  !- Outlet 4 Node Name
    Air Loop Zone Splitter Outlet Node 5,  !- Outlet 5 Node Name
    Air Loop Zone Splitter Outlet Node 6,  !- Outlet 6 Node Name
    Air Loop Zone Splitter Outlet Node 7;  !- Outlet 7 Node Name


!-   ===========  ALL OBJECTS IN CLASS: AIRLOOPHVAC:SUPPLYPATH ===========

AirLoopHVAC:SupplyPath,
    Air Loop Demand Side Supply Path 1,  !- Name
    Air Loop Demand Side Inlet 1,  !- Supply Air Path Inlet Node Name
    AirLoopHVAC:ZoneSplitter,!- Component 1 Object Type
    Air Loop Zone Splitter;  !- Component 1 Name


!-   ===========  ALL OBJECTS IN CLASS: AIRLOOPHVAC:ZONEMIXER ===========

AirLoopHVAC:ZoneMixer,
    Air Loop Zone Mixer,     !- Name
    Air Loop Demand Side Outlet,  !- Outlet Node Name
    Air Loop Zone Mixer Inlet Node 1,  !- Inlet 1 Node Name
    Air Loop Zone Mixer Inlet Node 2,  !- Inlet 2 Node Name
    Air Loop Zone Mixer Inlet Node 3,  !- Inlet 3 Node Name
    Air Loop Zone Mixer Inlet Node 4,  !- Inlet 4 Node Name
    Air Loop Zone Mixer Inlet Node 5,  !- Inlet 5 Node Name
    Air Loop Zone Mixer Inlet Node 6,  !- Inlet 6 Node Name
    Air Loop Zone Mixer Inlet Node 7;  !- Inlet 7 Node Name


!-   ===========  ALL OBJECTS IN CLASS: AIRLOOPHVAC:RETURNPATH ===========

AirLoopHVAC:ReturnPath,
    Air Loop Demand Side Return Path,  !- Name
    Air Loop Demand Side Outlet,  !- Return Air Path Outlet Node Name
    AirLoopHVAC:ZoneMixer,   !- Component 1 Object Type
    Air Loop Zone Mixer;     !- Component 1 Name


!-   ===========  ALL OBJECTS IN CLASS: BRANCH ===========

Branch,
    Air Loop AHU Main Branch,!- Name
    ,                        !- Pressure Drop Curve Name
    Fan:VariableVolume,      !- Component 1 Object Type
    Air Loop AHU Extract Fan,!- Component 1 Name
    Air Loop Supply Side Inlet,  !- Component 1 Inlet Node Name
    Air Loop AHU Extract Fan Air Outlet Node,  !- Component 1 Outlet Node Name
    AirLoopHVAC:OutdoorAirSystem,  !- Component 2 Object Type
    Air Loop AHU Outdoor air system,  !- Component 2 Name
    Air Loop AHU Extract Fan Air Outlet Node,  !- Component 2 Inlet Node Name
    Air Loop AHU Mixed Air Outlet,  !- Component 2 Outlet Node Name
    Coil:Cooling:Water,      !- Component 3 Object Type
    Air Loop AHU Cooling Coil,  !- Component 3 Name
    Air Loop AHU Mixed Air Outlet,  !- Component 3 Inlet Node Name
    Air Loop AHU Cooling Coil Air Outlet Node,  !- Component 3 Outlet Node Name
    Fan:VariableVolume,      !- Component 4 Object Type
    Air Loop AHU Supply Fan, !- Component 4 Name
    Air Loop AHU Cooling Coil Air Outlet Node,  !- Component 4 Inlet Node Name
    Air Loop Supply Side Outlet 1;  !- Component 4 Outlet Node Name

Branch,
    CHW Loop Demand Side Inlet Branch,  !- Name
    ,                        !- Pressure Drop Curve Name
    Pipe:Adiabatic,          !- Component 1 Object Type
    CHW Loop Demand Side Inlet Branch Pipe,  !- Component 1 Name
    CHW Loop Demand Side Inlet,  !- Component 1 Inlet Node Name
    CHW Loop Demand Side Inlet Branch Pipe Outlet;  !- Component 1 Outlet Node Name

Branch,
    CHW Loop Demand Side Bypass Branch,  !- Name
    ,                        !- Pressure Drop Curve Name
    Pipe:Adiabatic,          !- Component 1 Object Type
    CHW Loop Demand Side Bypass Pipe,  !- Component 1 Name
    CHW Loop Demand Side Bypass Pipe Inlet Node,  !- Component 1 Inlet Node Name
    CHW Loop Demand Side Bypass Pipe Outlet Node;  !- Component 1 Outlet Node Name

Branch,
    Air Loop AHU Cooling Coil CHW Loop Demand Side Branch,  !- Name
    ,                        !- Pressure Drop Curve Name
    Coil:Cooling:Water,      !- Component 1 Object Type
    Air Loop AHU Cooling Coil,  !- Component 1 Name
    Air Loop AHU Cooling Coil Water Inlet Node,  !- Component 1 Inlet Node Name
    Air Loop AHU Cooling Coil Water Outlet Node;  !- Component 1 Outlet Node Name

Branch,
    CHW Loop Demand Side Outlet Branch,  !- Name
    ,                        !- Pressure Drop Curve Name
    Pipe:Adiabatic,          !- Component 1 Object Type
    CHW Loop Demand Side Outlet Branch Pipe,  !- Component 1 Name
    CHW Loop Demand Side Outlet Branch Pipe Inlet,  !- Component 1 Inlet Node Name
    CHW Loop Demand Side Outlet;  !- Component 1 Outlet Node Name

Branch,
    CHW Loop Supply Side Inlet Branch,  !- Name
    ,                        !- Pressure Drop Curve Name
    Pump:VariableSpeed,      !- Component 1 Object Type
    CHW Loop Supply Pump,    !- Component 1 Name
    CHW Loop Supply Side Inlet,  !- Component 1 Inlet Node Name
    CHW Loop Supply Pump Water Outlet Node;  !- Component 1 Outlet Node Name

Branch,
    CHW Loop Supply Side Bypass Branch,  !- Name
    ,                        !- Pressure Drop Curve Name
    Pipe:Adiabatic,          !- Component 1 Object Type
    CHW Loop Supply Side Bypass Pipe,  !- Component 1 Name
    CHW Loop Supply Side Bypass Pipe Inlet Node,  !- Component 1 Inlet Node Name
    CHW Loop Supply Side Bypass Pipe Outlet Node;  !- Component 1 Outlet Node Name

Branch,
    HX CHW Loop Supply Side Branch,  !- Name
    ,                        !- Pressure Drop Curve Name
    HeatExchanger:FluidToFluid,  !- Component 1 Object Type
    HX,                      !- Component 1 Name
    HX Supply Side Inlet Node,  !- Component 1 Inlet Node Name
    HX Supply Side Outlet Node,  !- Component 1 Outlet Node Name
    Chiller:Electric:ReformulatedEIR,  !- Component 2 Object Type
    Chiller,                 !- Component 2 Name
    HX Supply Side Outlet Node,  !- Component 2 Inlet Node Name
    Chiller CHW Outlet Node; !- Component 2 Outlet Node Name

Branch,
    Chilled Water Storage CHW Loop Supply Side Branch,  !- Name
    ,                        !- Pressure Drop Curve Name
    ThermalStorage:ChilledWater:Stratified,  !- Component 1 Object Type
    Chilled Water Storage,   !- Component 1 Name
    Chilled Water Storage Use side CHW Inlet Node,  !- Component 1 Inlet Node Name
    Chilled Water Storage Use side CHW Outlet Node;  !- Component 1 Outlet Node Name

Branch,
    CHW Loop Supply Side Outlet Branch,  !- Name
    ,                        !- Pressure Drop Curve Name
    Pipe:Adiabatic,          !- Component 1 Object Type
    CHW Loop Supply Side Outlet Branch Pipe,  !- Component 1 Name
    CHW Loop Supply Side Outlet Branch Pipe Inlet,  !- Component 1 Inlet Node Name
    CHW Loop Supply Side Outlet;  !- Component 1 Outlet Node Name

Branch,
    Condenser Loop Demand Side Inlet Branch,  !- Name
    ,                        !- Pressure Drop Curve Name
    Pipe:Adiabatic,          !- Component 1 Object Type
    Condenser Loop Demand Side Inlet Branch Pipe,  !- Component 1 Name
    Condenser Loop Demand Side Inlet,  !- Component 1 Inlet Node Name
    Condenser Loop Demand Side Inlet Branch Pipe Outlet;  !- Component 1 Outlet Node Name

Branch,
    Condenser Loop Demand Side Bypass Branch,  !- Name
    ,                        !- Pressure Drop Curve Name
    Pipe:Adiabatic,          !- Component 1 Object Type
    Condenser Loop Demand Side Bypass Pipe,  !- Component 1 Name
    Condenser Loop Demand Side Bypass Pipe Inlet Node,  !- Component 1 Inlet Node Name
    Condenser Loop Demand Side Bypass Pipe Outlet Node;  !- Component 1 Outlet Node Name

Branch,
    Chiller Condenser Loop Demand Side Branch,  !- Name
    ,                        !- Pressure Drop Curve Name
    Chiller:Electric:ReformulatedEIR,  !- Component 1 Object Type
    Chiller,                 !- Component 1 Name
    Chiller Condenser Inlet Node,  !- Component 1 Inlet Node Name
    Chiller Condenser Outlet Node;  !- Component 1 Outlet Node Name

Branch,
    Condenser Loop Demand Side Outlet Branch,  !- Name
    ,                        !- Pressure Drop Curve Name
    Pipe:Adiabatic,          !- Component 1 Object Type
    Condenser Loop Demand Side Outlet Branch Pipe,  !- Component 1 Name
    Condenser Loop Demand Side Outlet Branch Pipe Inlet,  !- Component 1 Inlet Node Name
    Condenser Loop Demand Side Outlet;  !- Component 1 Outlet Node Name

Branch,
    Condenser Loop Supply Side Inlet Branch,  !- Name
    ,                        !- Pressure Drop Curve Name
    Pump:VariableSpeed,      !- Component 1 Object Type
    Condenser Loop Supply Pump,  !- Component 1 Name
    Condenser Loop Supply Side Inlet,  !- Component 1 Inlet Node Name
    Condenser Loop Supply Pump Water Outlet Node;  !- Component 1 Outlet Node Name

Branch,
    Condenser Loop Supply Side Bypass Branch,  !- Name
    ,                        !- Pressure Drop Curve Name
    Pipe:Adiabatic,          !- Component 1 Object Type
    Condenser Loop Supply Side Bypass Pipe,  !- Component 1 Name
    Condenser Loop Supply Side Bypass Pipe Inlet Node,  !- Component 1 Inlet Node Name
    Condenser Loop Supply Side Bypass Pipe Outlet Node;  !- Component 1 Outlet Node Name

Branch,
    Cooling Tower Condenser Loop Supply Side Branch,  !- Name
    ,                        !- Pressure Drop Curve Name
    CoolingTower:VariableSpeed,  !- Component 1 Object Type
    Cooling Tower,           !- Component 1 Name
    Cooling Tower Water Inlet Node,  !- Component 1 Inlet Node Name
    Cooling Tower Water Outlet Node;  !- Component 1 Outlet Node Name

Branch,
    Condenser Loop Supply Side Outlet Branch,  !- Name
    ,                        !- Pressure Drop Curve Name
    Pipe:Adiabatic,          !- Component 1 Object Type
    Condenser Loop Supply Side Outlet Branch Pipe,  !- Component 1 Name
    Condenser Loop Supply Side Outlet Branch Pipe Inlet,  !- Component 1 Inlet Node Name
    Condenser Loop Supply Side Outlet;  !- Component 1 Outlet Node Name

Branch,
    Condenser Loop 1 Demand Side Inlet Branch,  !- Name
    ,                        !- Pressure Drop Curve Name
    Pipe:Adiabatic,          !- Component 1 Object Type
    Condenser Loop 1 Demand Side Inlet Branch Pipe,  !- Component 1 Name
    Condenser Loop 1 Demand Side Inlet,  !- Component 1 Inlet Node Name
    Condenser Loop 1 Demand Side Inlet Branch Pipe Outlet;  !- Component 1 Outlet Node Name

Branch,
    Condenser Loop 1 Demand Side Bypass Branch,  !- Name
    ,                        !- Pressure Drop Curve Name
    Pipe:Adiabatic,          !- Component 1 Object Type
    Condenser Loop 1 Demand Side Bypass Pipe,  !- Component 1 Name
    Condenser Loop 1 Demand Side Bypass Pipe Inlet Node,  !- Component 1 Inlet Node Name
    Condenser Loop 1 Demand Side Bypass Pipe Outlet Node;  !- Component 1 Outlet Node Name

Branch,
    HX Condenser Loop 1 Demand Side Branch,  !- Name
    ,                        !- Pressure Drop Curve Name
    HeatExchanger:FluidToFluid,  !- Component 1 Object Type
    HX,                      !- Component 1 Name
    HX Demand Side Inlet Node,  !- Component 1 Inlet Node Name
    HX Demand Side Outlet Node;  !- Component 1 Outlet Node Name

Branch,
    Condenser Loop 1 Demand Side Outlet Branch,  !- Name
    ,                        !- Pressure Drop Curve Name
    Pipe:Adiabatic,          !- Component 1 Object Type
    Condenser Loop 1 Demand Side Outlet Branch Pipe,  !- Component 1 Name
    Condenser Loop 1 Demand Side Outlet Branch Pipe Inlet,  !- Component 1 Inlet Node Name
    Condenser Loop 1 Demand Side Outlet;  !- Component 1 Outlet Node Name

Branch,
    Condenser Loop 1 Supply Side Inlet Branch,  !- Name
    ,                        !- Pressure Drop Curve Name
    Pump:VariableSpeed,      !- Component 1 Object Type
    Condenser Loop 1 Supply Pump,  !- Component 1 Name
    Condenser Loop 1 Supply Side Inlet,  !- Component 1 Inlet Node Name
    Condenser Loop 1 Supply Pump Water Outlet Node;  !- Component 1 Outlet Node Name

Branch,
    Condenser Loop 1 Supply Side Bypass Branch,  !- Name
    ,                        !- Pressure Drop Curve Name
    Pipe:Adiabatic,          !- Component 1 Object Type
    Condenser Loop 1 Supply Side Bypass Pipe,  !- Component 1 Name
    Condenser Loop 1 Supply Side Bypass Pipe Inlet Node,  !- Component 1 Inlet Node Name
    Condenser Loop 1 Supply Side Bypass Pipe Outlet Node;  !- Component 1 Outlet Node Name

Branch,
    Cooling Tower 1 Condenser Loop 1 Supply Side Branch,  !- Name
    ,                        !- Pressure Drop Curve Name
    CoolingTower:VariableSpeed,  !- Component 1 Object Type
    Cooling Tower 1,         !- Component 1 Name
    Cooling Tower 1 Water Inlet Node,  !- Component 1 Inlet Node Name
    Cooling Tower 1 Water Outlet Node;  !- Component 1 Outlet Node Name

Branch,
    Condenser Loop 1 Supply Side Outlet Branch,  !- Name
    ,                        !- Pressure Drop Curve Name
    Pipe:Adiabatic,          !- Component 1 Object Type
    Condenser Loop 1 Supply Side Outlet Branch Pipe,  !- Component 1 Name
    Condenser Loop 1 Supply Side Outlet Branch Pipe Inlet,  !- Component 1 Inlet Node Name
    Condenser Loop 1 Supply Side Outlet;  !- Component 1 Outlet Node Name

Branch,
    CHW Loop 1 Demand Side Inlet Branch,  !- Name
    ,                        !- Pressure Drop Curve Name
    Pipe:Adiabatic,          !- Component 1 Object Type
    CHW Loop 1 Demand Side Inlet Branch Pipe,  !- Component 1 Name
    CHW Loop 1 Demand Side Inlet,  !- Component 1 Inlet Node Name
    CHW Loop 1 Demand Side Inlet Branch Pipe Outlet;  !- Component 1 Outlet Node Name

Branch,
    CHW Loop 1 Demand Side Bypass Branch,  !- Name
    ,                        !- Pressure Drop Curve Name
    Pipe:Adiabatic,          !- Component 1 Object Type
    CHW Loop 1 Demand Side Bypass Pipe,  !- Component 1 Name
    CHW Loop 1 Demand Side Bypass Pipe Inlet Node,  !- Component 1 Inlet Node Name
    CHW Loop 1 Demand Side Bypass Pipe Outlet Node;  !- Component 1 Outlet Node Name

Branch,
    Chilled Water Storage CHW Loop 1 Demand Side Branch,  !- Name
    ,                        !- Pressure Drop Curve Name
    ThermalStorage:ChilledWater:Stratified,  !- Component 1 Object Type
    Chilled Water Storage,   !- Component 1 Name
    Chilled Water Storage Source side CHW Inlet Node,  !- Component 1 Inlet Node Name
    Chilled Water Storage Source side CHW Outlet Node;  !- Component 1 Outlet Node Name

Branch,
    CHW Loop 1 Demand Side Outlet Branch,  !- Name
    ,                        !- Pressure Drop Curve Name
    Pipe:Adiabatic,          !- Component 1 Object Type
    CHW Loop 1 Demand Side Outlet Branch Pipe,  !- Component 1 Name
    CHW Loop 1 Demand Side Outlet Branch Pipe Inlet,  !- Component 1 Inlet Node Name
    CHW Loop 1 Demand Side Outlet;  !- Component 1 Outlet Node Name

Branch,
    CHW Loop 1 Supply Side Inlet Branch,  !- Name
    ,                        !- Pressure Drop Curve Name
    Pump:VariableSpeed,      !- Component 1 Object Type
    CHW Loop 1 Supply Pump,  !- Component 1 Name
    CHW Loop 1 Supply Side Inlet,  !- Component 1 Inlet Node Name
    CHW Loop 1 Supply Pump Water Outlet Node;  !- Component 1 Outlet Node Name

Branch,
    CHW Loop 1 Supply Side Bypass Branch,  !- Name
    ,                        !- Pressure Drop Curve Name
    Pipe:Adiabatic,          !- Component 1 Object Type
    CHW Loop 1 Supply Side Bypass Pipe,  !- Component 1 Name
    CHW Loop 1 Supply Side Bypass Pipe Inlet Node,  !- Component 1 Inlet Node Name
    CHW Loop 1 Supply Side Bypass Pipe Outlet Node;  !- Component 1 Outlet Node Name

Branch,
    HX 1 CHW Loop 1 Supply Side Branch,  !- Name
    ,                        !- Pressure Drop Curve Name
    HeatExchanger:FluidToFluid,  !- Component 1 Object Type
    HX 1,                    !- Component 1 Name
    HX 1 Supply Side Inlet Node,  !- Component 1 Inlet Node Name
    HX 1 Supply Side Outlet Node,  !- Component 1 Outlet Node Name
    Chiller:Electric:ReformulatedEIR,  !- Component 2 Object Type
    Chiller 1,               !- Component 2 Name
    HX 1 Supply Side Outlet Node,  !- Component 2 Inlet Node Name
    Chiller 1 CHW Outlet Node;  !- Component 2 Outlet Node Name

Branch,
    CHW Loop 1 Supply Side Outlet Branch,  !- Name
    ,                        !- Pressure Drop Curve Name
    Pipe:Adiabatic,          !- Component 1 Object Type
    CHW Loop 1 Supply Side Outlet Branch Pipe,  !- Component 1 Name
    CHW Loop 1 Supply Side Outlet Branch Pipe Inlet,  !- Component 1 Inlet Node Name
    CHW Loop 1 Supply Side Outlet;  !- Component 1 Outlet Node Name

Branch,
    Condenser Loop 2 Demand Side Inlet Branch,  !- Name
    ,                        !- Pressure Drop Curve Name
    Pipe:Adiabatic,          !- Component 1 Object Type
    Condenser Loop 2 Demand Side Inlet Branch Pipe,  !- Component 1 Name
    Condenser Loop 2 Demand Side Inlet,  !- Component 1 Inlet Node Name
    Condenser Loop 2 Demand Side Inlet Branch Pipe Outlet;  !- Component 1 Outlet Node Name

Branch,
    Condenser Loop 2 Demand Side Bypass Branch,  !- Name
    ,                        !- Pressure Drop Curve Name
    Pipe:Adiabatic,          !- Component 1 Object Type
    Condenser Loop 2 Demand Side Bypass Pipe,  !- Component 1 Name
    Condenser Loop 2 Demand Side Bypass Pipe Inlet Node,  !- Component 1 Inlet Node Name
    Condenser Loop 2 Demand Side Bypass Pipe Outlet Node;  !- Component 1 Outlet Node Name

Branch,
    Chiller 1 Condenser Loop 2 Demand Side Branch,  !- Name
    ,                        !- Pressure Drop Curve Name
    Chiller:Electric:ReformulatedEIR,  !- Component 1 Object Type
    Chiller 1,               !- Component 1 Name
    Chiller 1 Condenser Inlet Node,  !- Component 1 Inlet Node Name
    Chiller 1 Condenser Outlet Node;  !- Component 1 Outlet Node Name

Branch,
    Condenser Loop 2 Demand Side Outlet Branch,  !- Name
    ,                        !- Pressure Drop Curve Name
    Pipe:Adiabatic,          !- Component 1 Object Type
    Condenser Loop 2 Demand Side Outlet Branch Pipe,  !- Component 1 Name
    Condenser Loop 2 Demand Side Outlet Branch Pipe Inlet,  !- Component 1 Inlet Node Name
    Condenser Loop 2 Demand Side Outlet;  !- Component 1 Outlet Node Name

Branch,
    Condenser Loop 2 Supply Side Inlet Branch,  !- Name
    ,                        !- Pressure Drop Curve Name
    Pump:VariableSpeed,      !- Component 1 Object Type
    Condenser Loop 2 Supply Pump,  !- Component 1 Name
    Condenser Loop 2 Supply Side Inlet,  !- Component 1 Inlet Node Name
    Condenser Loop 2 Supply Pump Water Outlet Node;  !- Component 1 Outlet Node Name

Branch,
    Condenser Loop 2 Supply Side Bypass Branch,  !- Name
    ,                        !- Pressure Drop Curve Name
    Pipe:Adiabatic,          !- Component 1 Object Type
    Condenser Loop 2 Supply Side Bypass Pipe,  !- Component 1 Name
    Condenser Loop 2 Supply Side Bypass Pipe Inlet Node,  !- Component 1 Inlet Node Name
    Condenser Loop 2 Supply Side Bypass Pipe Outlet Node;  !- Component 1 Outlet Node Name

Branch,
    Cooling Tower 2 Condenser Loop 2 Supply Side Branch,  !- Name
    ,                        !- Pressure Drop Curve Name
    CoolingTower:VariableSpeed,  !- Component 1 Object Type
    Cooling Tower 2,         !- Component 1 Name
    Cooling Tower 2 Water Inlet Node,  !- Component 1 Inlet Node Name
    Cooling Tower 2 Water Outlet Node;  !- Component 1 Outlet Node Name

Branch,
    Condenser Loop 2 Supply Side Outlet Branch,  !- Name
    ,                        !- Pressure Drop Curve Name
    Pipe:Adiabatic,          !- Component 1 Object Type
    Condenser Loop 2 Supply Side Outlet Branch Pipe,  !- Component 1 Name
    Condenser Loop 2 Supply Side Outlet Branch Pipe Inlet,  !- Component 1 Inlet Node Name
    Condenser Loop 2 Supply Side Outlet;  !- Component 1 Outlet Node Name

Branch,
    Condenser Loop 3 Demand Side Inlet Branch,  !- Name
    ,                        !- Pressure Drop Curve Name
    Pipe:Adiabatic,          !- Component 1 Object Type
    Condenser Loop 3 Demand Side Inlet Branch Pipe,  !- Component 1 Name
    Condenser Loop 3 Demand Side Inlet,  !- Component 1 Inlet Node Name
    Condenser Loop 3 Demand Side Inlet Branch Pipe Outlet;  !- Component 1 Outlet Node Name

Branch,
    Condenser Loop 3 Demand Side Bypass Branch,  !- Name
    ,                        !- Pressure Drop Curve Name
    Pipe:Adiabatic,          !- Component 1 Object Type
    Condenser Loop 3 Demand Side Bypass Pipe,  !- Component 1 Name
    Condenser Loop 3 Demand Side Bypass Pipe Inlet Node,  !- Component 1 Inlet Node Name
    Condenser Loop 3 Demand Side Bypass Pipe Outlet Node;  !- Component 1 Outlet Node Name

Branch,
    HX 1 Condenser Loop 3 Demand Side Branch,  !- Name
    ,                        !- Pressure Drop Curve Name
    HeatExchanger:FluidToFluid,  !- Component 1 Object Type
    HX 1,                    !- Component 1 Name
    HX 1 Demand Side Inlet Node,  !- Component 1 Inlet Node Name
    HX 1 Demand Side Outlet Node;  !- Component 1 Outlet Node Name

Branch,
    Condenser Loop 3 Demand Side Outlet Branch,  !- Name
    ,                        !- Pressure Drop Curve Name
    Pipe:Adiabatic,          !- Component 1 Object Type
    Condenser Loop 3 Demand Side Outlet Branch Pipe,  !- Component 1 Name
    Condenser Loop 3 Demand Side Outlet Branch Pipe Inlet,  !- Component 1 Inlet Node Name
    Condenser Loop 3 Demand Side Outlet;  !- Component 1 Outlet Node Name

Branch,
    Condenser Loop 3 Supply Side Inlet Branch,  !- Name
    ,                        !- Pressure Drop Curve Name
    Pump:VariableSpeed,      !- Component 1 Object Type
    Condenser Loop 3 Supply Pump,  !- Component 1 Name
    Condenser Loop 3 Supply Side Inlet,  !- Component 1 Inlet Node Name
    Condenser Loop 3 Supply Pump Water Outlet Node;  !- Component 1 Outlet Node Name

Branch,
    Condenser Loop 3 Supply Side Bypass Branch,  !- Name
    ,                        !- Pressure Drop Curve Name
    Pipe:Adiabatic,          !- Component 1 Object Type
    Condenser Loop 3 Supply Side Bypass Pipe,  !- Component 1 Name
    Condenser Loop 3 Supply Side Bypass Pipe Inlet Node,  !- Component 1 Inlet Node Name
    Condenser Loop 3 Supply Side Bypass Pipe Outlet Node;  !- Component 1 Outlet Node Name

Branch,
    Cooling Tower 3 Condenser Loop 3 Supply Side Branch,  !- Name
    ,                        !- Pressure Drop Curve Name
    CoolingTower:VariableSpeed,  !- Component 1 Object Type
    Cooling Tower 3,         !- Component 1 Name
    Cooling Tower 3 Water Inlet Node,  !- Component 1 Inlet Node Name
    Cooling Tower 3 Water Outlet Node;  !- Component 1 Outlet Node Name

Branch,
    Condenser Loop 3 Supply Side Outlet Branch,  !- Name
    ,                        !- Pressure Drop Curve Name
    Pipe:Adiabatic,          !- Component 1 Object Type
    Condenser Loop 3 Supply Side Outlet Branch Pipe,  !- Component 1 Name
    Condenser Loop 3 Supply Side Outlet Branch Pipe Inlet,  !- Component 1 Inlet Node Name
    Condenser Loop 3 Supply Side Outlet;  !- Component 1 Outlet Node Name


!-   ===========  ALL OBJECTS IN CLASS: BRANCHLIST ===========

BranchList,
    Air Loop Branches,       !- Name
    Air Loop AHU Main Branch;!- Branch 1 Name

BranchList,
    CHW Loop Demand Side Branches,  !- Name
    CHW Loop Demand Side Inlet Branch,  !- Branch 1 Name
    CHW Loop Demand Side Bypass Branch,  !- Branch 2 Name
    Air Loop AHU Cooling Coil CHW Loop Demand Side Branch,  !- Branch 3 Name
    CHW Loop Demand Side Outlet Branch;  !- Branch 4 Name

BranchList,
    CHW Loop Supply Side Branches,  !- Name
    CHW Loop Supply Side Inlet Branch,  !- Branch 1 Name
    CHW Loop Supply Side Bypass Branch,  !- Branch 2 Name
    HX CHW Loop Supply Side Branch,  !- Branch 3 Name
    Chilled Water Storage CHW Loop Supply Side Branch,  !- Branch 4 Name
    CHW Loop Supply Side Outlet Branch;  !- Branch 5 Name

BranchList,
    Condenser Loop Demand Side Branches,  !- Name
    Condenser Loop Demand Side Inlet Branch,  !- Branch 1 Name
    Condenser Loop Demand Side Bypass Branch,  !- Branch 2 Name
    Chiller Condenser Loop Demand Side Branch,  !- Branch 3 Name
    Condenser Loop Demand Side Outlet Branch;  !- Branch 4 Name

BranchList,
    Condenser Loop Supply Side Branches,  !- Name
    Condenser Loop Supply Side Inlet Branch,  !- Branch 1 Name
    Condenser Loop Supply Side Bypass Branch,  !- Branch 2 Name
    Cooling Tower Condenser Loop Supply Side Branch,  !- Branch 3 Name
    Condenser Loop Supply Side Outlet Branch;  !- Branch 4 Name

BranchList,
    Condenser Loop 1 Demand Side Branches,  !- Name
    Condenser Loop 1 Demand Side Inlet Branch,  !- Branch 1 Name
    Condenser Loop 1 Demand Side Bypass Branch,  !- Branch 2 Name
    HX Condenser Loop 1 Demand Side Branch,  !- Branch 3 Name
    Condenser Loop 1 Demand Side Outlet Branch;  !- Branch 4 Name

BranchList,
    Condenser Loop 1 Supply Side Branches,  !- Name
    Condenser Loop 1 Supply Side Inlet Branch,  !- Branch 1 Name
    Condenser Loop 1 Supply Side Bypass Branch,  !- Branch 2 Name
    Cooling Tower 1 Condenser Loop 1 Supply Side Branch,  !- Branch 3 Name
    Condenser Loop 1 Supply Side Outlet Branch;  !- Branch 4 Name

BranchList,
    CHW Loop 1 Demand Side Branches,  !- Name
    CHW Loop 1 Demand Side Inlet Branch,  !- Branch 1 Name
    CHW Loop 1 Demand Side Bypass Branch,  !- Branch 2 Name
    Chilled Water Storage CHW Loop 1 Demand Side Branch,  !- Branch 3 Name
    CHW Loop 1 Demand Side Outlet Branch;  !- Branch 4 Name

BranchList,
    CHW Loop 1 Supply Side Branches,  !- Name
    CHW Loop 1 Supply Side Inlet Branch,  !- Branch 1 Name
    CHW Loop 1 Supply Side Bypass Branch,  !- Branch 2 Name
    HX 1 CHW Loop 1 Supply Side Branch,  !- Branch 3 Name
    CHW Loop 1 Supply Side Outlet Branch;  !- Branch 4 Name

BranchList,
    Condenser Loop 2 Demand Side Branches,  !- Name
    Condenser Loop 2 Demand Side Inlet Branch,  !- Branch 1 Name
    Condenser Loop 2 Demand Side Bypass Branch,  !- Branch 2 Name
    Chiller 1 Condenser Loop 2 Demand Side Branch,  !- Branch 3 Name
    Condenser Loop 2 Demand Side Outlet Branch;  !- Branch 4 Name

BranchList,
    Condenser Loop 2 Supply Side Branches,  !- Name
    Condenser Loop 2 Supply Side Inlet Branch,  !- Branch 1 Name
    Condenser Loop 2 Supply Side Bypass Branch,  !- Branch 2 Name
    Cooling Tower 2 Condenser Loop 2 Supply Side Branch,  !- Branch 3 Name
    Condenser Loop 2 Supply Side Outlet Branch;  !- Branch 4 Name

BranchList,
    Condenser Loop 3 Demand Side Branches,  !- Name
    Condenser Loop 3 Demand Side Inlet Branch,  !- Branch 1 Name
    Condenser Loop 3 Demand Side Bypass Branch,  !- Branch 2 Name
    HX 1 Condenser Loop 3 Demand Side Branch,  !- Branch 3 Name
    Condenser Loop 3 Demand Side Outlet Branch;  !- Branch 4 Name

BranchList,
    Condenser Loop 3 Supply Side Branches,  !- Name
    Condenser Loop 3 Supply Side Inlet Branch,  !- Branch 1 Name
    Condenser Loop 3 Supply Side Bypass Branch,  !- Branch 2 Name
    Cooling Tower 3 Condenser Loop 3 Supply Side Branch,  !- Branch 3 Name
    Condenser Loop 3 Supply Side Outlet Branch;  !- Branch 4 Name


!-   ===========  ALL OBJECTS IN CLASS: CONNECTOR:SPLITTER ===========

Connector:Splitter,
    CHW Loop Demand Splitter,!- Name
    CHW Loop Demand Side Inlet Branch,  !- Inlet Branch Name
    CHW Loop Demand Side Bypass Branch,  !- Outlet Branch 1 Name
    Air Loop AHU Cooling Coil CHW Loop Demand Side Branch;  !- Outlet Branch 2 Name

Connector:Splitter,
    CHW Loop Supply Splitter,!- Name
    CHW Loop Supply Side Inlet Branch,  !- Inlet Branch Name
    CHW Loop Supply Side Bypass Branch,  !- Outlet Branch 1 Name
    HX CHW Loop Supply Side Branch,  !- Outlet Branch 2 Name
    Chilled Water Storage CHW Loop Supply Side Branch;  !- Outlet Branch 3 Name

Connector:Splitter,
    Condenser Loop Demand Splitter,  !- Name
    Condenser Loop Demand Side Inlet Branch,  !- Inlet Branch Name
    Condenser Loop Demand Side Bypass Branch,  !- Outlet Branch 1 Name
    Chiller Condenser Loop Demand Side Branch;  !- Outlet Branch 2 Name

Connector:Splitter,
    Condenser Loop Supply Splitter,  !- Name
    Condenser Loop Supply Side Inlet Branch,  !- Inlet Branch Name
    Condenser Loop Supply Side Bypass Branch,  !- Outlet Branch 1 Name
    Cooling Tower Condenser Loop Supply Side Branch;  !- Outlet Branch 2 Name

Connector:Splitter,
    Condenser Loop 1 Demand Splitter,  !- Name
    Condenser Loop 1 Demand Side Inlet Branch,  !- Inlet Branch Name
    Condenser Loop 1 Demand Side Bypass Branch,  !- Outlet Branch 1 Name
    HX Condenser Loop 1 Demand Side Branch;  !- Outlet Branch 2 Name

Connector:Splitter,
    Condenser Loop 1 Supply Splitter,  !- Name
    Condenser Loop 1 Supply Side Inlet Branch,  !- Inlet Branch Name
    Condenser Loop 1 Supply Side Bypass Branch,  !- Outlet Branch 1 Name
    Cooling Tower 1 Condenser Loop 1 Supply Side Branch;  !- Outlet Branch 2 Name

Connector:Splitter,
    CHW Loop 1 Demand Splitter,  !- Name
    CHW Loop 1 Demand Side Inlet Branch,  !- Inlet Branch Name
    CHW Loop 1 Demand Side Bypass Branch,  !- Outlet Branch 1 Name
    Chilled Water Storage CHW Loop 1 Demand Side Branch;  !- Outlet Branch 2 Name

Connector:Splitter,
    CHW Loop 1 Supply Splitter,  !- Name
    CHW Loop 1 Supply Side Inlet Branch,  !- Inlet Branch Name
    CHW Loop 1 Supply Side Bypass Branch,  !- Outlet Branch 1 Name
    HX 1 CHW Loop 1 Supply Side Branch;  !- Outlet Branch 2 Name

Connector:Splitter,
    Condenser Loop 2 Demand Splitter,  !- Name
    Condenser Loop 2 Demand Side Inlet Branch,  !- Inlet Branch Name
    Condenser Loop 2 Demand Side Bypass Branch,  !- Outlet Branch 1 Name
    Chiller 1 Condenser Loop 2 Demand Side Branch;  !- Outlet Branch 2 Name

Connector:Splitter,
    Condenser Loop 2 Supply Splitter,  !- Name
    Condenser Loop 2 Supply Side Inlet Branch,  !- Inlet Branch Name
    Condenser Loop 2 Supply Side Bypass Branch,  !- Outlet Branch 1 Name
    Cooling Tower 2 Condenser Loop 2 Supply Side Branch;  !- Outlet Branch 2 Name

Connector:Splitter,
    Condenser Loop 3 Demand Splitter,  !- Name
    Condenser Loop 3 Demand Side Inlet Branch,  !- Inlet Branch Name
    Condenser Loop 3 Demand Side Bypass Branch,  !- Outlet Branch 1 Name
    HX 1 Condenser Loop 3 Demand Side Branch;  !- Outlet Branch 2 Name

Connector:Splitter,
    Condenser Loop 3 Supply Splitter,  !- Name
    Condenser Loop 3 Supply Side Inlet Branch,  !- Inlet Branch Name
    Condenser Loop 3 Supply Side Bypass Branch,  !- Outlet Branch 1 Name
    Cooling Tower 3 Condenser Loop 3 Supply Side Branch;  !- Outlet Branch 2 Name


!-   ===========  ALL OBJECTS IN CLASS: CONNECTOR:MIXER ===========

Connector:Mixer,
    CHW Loop Demand Mixer,   !- Name
    CHW Loop Demand Side Outlet Branch,  !- Outlet Branch Name
    Air Loop AHU Cooling Coil CHW Loop Demand Side Branch,  !- Inlet Branch 1 Name
    CHW Loop Demand Side Bypass Branch;  !- Inlet Branch 2 Name

Connector:Mixer,
    CHW Loop Supply Mixer,   !- Name
    CHW Loop Supply Side Outlet Branch,  !- Outlet Branch Name
    HX CHW Loop Supply Side Branch,  !- Inlet Branch 1 Name
    CHW Loop Supply Side Bypass Branch,  !- Inlet Branch 2 Name
    Chilled Water Storage CHW Loop Supply Side Branch;  !- Inlet Branch 3 Name

Connector:Mixer,
    Condenser Loop Demand Mixer,  !- Name
    Condenser Loop Demand Side Outlet Branch,  !- Outlet Branch Name
    Chiller Condenser Loop Demand Side Branch,  !- Inlet Branch 1 Name
    Condenser Loop Demand Side Bypass Branch;  !- Inlet Branch 2 Name

Connector:Mixer,
    Condenser Loop Supply Mixer,  !- Name
    Condenser Loop Supply Side Outlet Branch,  !- Outlet Branch Name
    Cooling Tower Condenser Loop Supply Side Branch,  !- Inlet Branch 1 Name
    Condenser Loop Supply Side Bypass Branch;  !- Inlet Branch 2 Name

Connector:Mixer,
    Condenser Loop 1 Demand Mixer,  !- Name
    Condenser Loop 1 Demand Side Outlet Branch,  !- Outlet Branch Name
    HX Condenser Loop 1 Demand Side Branch,  !- Inlet Branch 1 Name
    Condenser Loop 1 Demand Side Bypass Branch;  !- Inlet Branch 2 Name

Connector:Mixer,
    Condenser Loop 1 Supply Mixer,  !- Name
    Condenser Loop 1 Supply Side Outlet Branch,  !- Outlet Branch Name
    Cooling Tower 1 Condenser Loop 1 Supply Side Branch,  !- Inlet Branch 1 Name
    Condenser Loop 1 Supply Side Bypass Branch;  !- Inlet Branch 2 Name

Connector:Mixer,
    CHW Loop 1 Demand Mixer, !- Name
    CHW Loop 1 Demand Side Outlet Branch,  !- Outlet Branch Name
    Chilled Water Storage CHW Loop 1 Demand Side Branch,  !- Inlet Branch 1 Name
    CHW Loop 1 Demand Side Bypass Branch;  !- Inlet Branch 2 Name

Connector:Mixer,
    CHW Loop 1 Supply Mixer, !- Name
    CHW Loop 1 Supply Side Outlet Branch,  !- Outlet Branch Name
    HX 1 CHW Loop 1 Supply Side Branch,  !- Inlet Branch 1 Name
    CHW Loop 1 Supply Side Bypass Branch;  !- Inlet Branch 2 Name

Connector:Mixer,
    Condenser Loop 2 Demand Mixer,  !- Name
    Condenser Loop 2 Demand Side Outlet Branch,  !- Outlet Branch Name
    Chiller 1 Condenser Loop 2 Demand Side Branch,  !- Inlet Branch 1 Name
    Condenser Loop 2 Demand Side Bypass Branch;  !- Inlet Branch 2 Name

Connector:Mixer,
    Condenser Loop 2 Supply Mixer,  !- Name
    Condenser Loop 2 Supply Side Outlet Branch,  !- Outlet Branch Name
    Cooling Tower 2 Condenser Loop 2 Supply Side Branch,  !- Inlet Branch 1 Name
    Condenser Loop 2 Supply Side Bypass Branch;  !- Inlet Branch 2 Name

Connector:Mixer,
    Condenser Loop 3 Demand Mixer,  !- Name
    Condenser Loop 3 Demand Side Outlet Branch,  !- Outlet Branch Name
    HX 1 Condenser Loop 3 Demand Side Branch,  !- Inlet Branch 1 Name
    Condenser Loop 3 Demand Side Bypass Branch;  !- Inlet Branch 2 Name

Connector:Mixer,
    Condenser Loop 3 Supply Mixer,  !- Name
    Condenser Loop 3 Supply Side Outlet Branch,  !- Outlet Branch Name
    Cooling Tower 3 Condenser Loop 3 Supply Side Branch,  !- Inlet Branch 1 Name
    Condenser Loop 3 Supply Side Bypass Branch;  !- Inlet Branch 2 Name


!-   ===========  ALL OBJECTS IN CLASS: CONNECTORLIST ===========

ConnectorList,
    CHW Loop Demand Side Connectors,  !- Name
    Connector:Splitter,      !- Connector 1 Object Type
    CHW Loop Demand Splitter,!- Connector 1 Name
    Connector:Mixer,         !- Connector 2 Object Type
    CHW Loop Demand Mixer;   !- Connector 2 Name

ConnectorList,
    CHW Loop Supply Side Connectors,  !- Name
    Connector:Splitter,      !- Connector 1 Object Type
    CHW Loop Supply Splitter,!- Connector 1 Name
    Connector:Mixer,         !- Connector 2 Object Type
    CHW Loop Supply Mixer;   !- Connector 2 Name

ConnectorList,
    Condenser Loop Demand Side Connectors,  !- Name
    Connector:Splitter,      !- Connector 1 Object Type
    Condenser Loop Demand Splitter,  !- Connector 1 Name
    Connector:Mixer,         !- Connector 2 Object Type
    Condenser Loop Demand Mixer;  !- Connector 2 Name

ConnectorList,
    Condenser Loop Supply Side Connectors,  !- Name
    Connector:Splitter,      !- Connector 1 Object Type
    Condenser Loop Supply Splitter,  !- Connector 1 Name
    Connector:Mixer,         !- Connector 2 Object Type
    Condenser Loop Supply Mixer;  !- Connector 2 Name

ConnectorList,
    Condenser Loop 1 Demand Side Connectors,  !- Name
    Connector:Splitter,      !- Connector 1 Object Type
    Condenser Loop 1 Demand Splitter,  !- Connector 1 Name
    Connector:Mixer,         !- Connector 2 Object Type
    Condenser Loop 1 Demand Mixer;  !- Connector 2 Name

ConnectorList,
    Condenser Loop 1 Supply Side Connectors,  !- Name
    Connector:Splitter,      !- Connector 1 Object Type
    Condenser Loop 1 Supply Splitter,  !- Connector 1 Name
    Connector:Mixer,         !- Connector 2 Object Type
    Condenser Loop 1 Supply Mixer;  !- Connector 2 Name

ConnectorList,
    CHW Loop 1 Demand Side Connectors,  !- Name
    Connector:Splitter,      !- Connector 1 Object Type
    CHW Loop 1 Demand Splitter,  !- Connector 1 Name
    Connector:Mixer,         !- Connector 2 Object Type
    CHW Loop 1 Demand Mixer; !- Connector 2 Name

ConnectorList,
    CHW Loop 1 Supply Side Connectors,  !- Name
    Connector:Splitter,      !- Connector 1 Object Type
    CHW Loop 1 Supply Splitter,  !- Connector 1 Name
    Connector:Mixer,         !- Connector 2 Object Type
    CHW Loop 1 Supply Mixer; !- Connector 2 Name

ConnectorList,
    Condenser Loop 2 Demand Side Connectors,  !- Name
    Connector:Splitter,      !- Connector 1 Object Type
    Condenser Loop 2 Demand Splitter,  !- Connector 1 Name
    Connector:Mixer,         !- Connector 2 Object Type
    Condenser Loop 2 Demand Mixer;  !- Connector 2 Name

ConnectorList,
    Condenser Loop 2 Supply Side Connectors,  !- Name
    Connector:Splitter,      !- Connector 1 Object Type
    Condenser Loop 2 Supply Splitter,  !- Connector 1 Name
    Connector:Mixer,         !- Connector 2 Object Type
    Condenser Loop 2 Supply Mixer;  !- Connector 2 Name

ConnectorList,
    Condenser Loop 3 Demand Side Connectors,  !- Name
    Connector:Splitter,      !- Connector 1 Object Type
    Condenser Loop 3 Demand Splitter,  !- Connector 1 Name
    Connector:Mixer,         !- Connector 2 Object Type
    Condenser Loop 3 Demand Mixer;  !- Connector 2 Name

ConnectorList,
    Condenser Loop 3 Supply Side Connectors,  !- Name
    Connector:Splitter,      !- Connector 1 Object Type
    Condenser Loop 3 Supply Splitter,  !- Connector 1 Name
    Connector:Mixer,         !- Connector 2 Object Type
    Condenser Loop 3 Supply Mixer;  !- Connector 2 Name


!-   ===========  ALL OBJECTS IN CLASS: NODELIST ===========

NodeList,
    Air Loop Demand Side Inlet List,  !- Name
    Air Loop Demand Side Inlet 1;  !- Node 1 Name

NodeList,
    Air Loop Supply Side Outlet List,  !- Name
    Air Loop Supply Side Outlet 1;  !- Node 1 Name

NodeList,
    3F:DC Air Inlet Node List,  !- Name
    3F:DC Single Duct VAV No Reheat Supply Outlet;  !- Node 1 Name

NodeList,
    3F:BTXRXup Air Inlet Node List,  !- Name
    3F:BTXRXup Single Duct VAV No Reheat Supply Outlet;  !- Node 1 Name

NodeList,
    3F:EXRXup Air Inlet Node List,  !- Name
    3F:EXRXup Single Duct VAV No Reheat Supply Outlet;  !- Node 1 Name

NodeList,
    3F:UPSXup Air Inlet Node List,  !- Name
    3F:UPSXup Single Duct VAV No Reheat Supply Outlet;  !- Node 1 Name

NodeList,
    3F:UPSXdown Air Inlet Node List,  !- Name
    3F:UPSXdown Single Duct VAV No Reheat Supply Outlet;  !- Node 1 Name

NodeList,
    3F:EXRXdown Air Inlet Node List,  !- Name
    3F:EXRXdown Single Duct VAV No Reheat Supply Outlet;  !- Node 1 Name

NodeList,
    3F:BTXRXdown Air Inlet Node List,  !- Name
    3F:BTXRXdown Single Duct VAV No Reheat Supply Outlet;  !- Node 1 Name

NodeList,
    Air Loop Setpoint Manager Node List,  !- Name
    Air Loop Supply Side Outlet 1;  !- Node 1 Name

NodeList,
    CHW Loop Setpoint Manager Node List,  !- Name
    CHW Loop Supply Side Outlet;  !- Node 1 Name

NodeList,
    CHW Loop Setpoint Manager 1 Node List,  !- Name
    Chiller CHW Outlet Node; !- Node 1 Name

NodeList,
    Condenser Loop Setpoint Manager Node List,  !- Name
    Condenser Loop Supply Side Outlet;  !- Node 1 Name

NodeList,
    Condenser Loop 1 Setpoint Manager Node List,  !- Name
    Condenser Loop 1 Supply Side Outlet;  !- Node 1 Name

NodeList,
    CHW Loop 1 Setpoint Manager Node List,  !- Name
    CHW Loop 1 Supply Side Outlet;  !- Node 1 Name

NodeList,
    CHW Loop 1 Setpoint Manager 1 Node List,  !- Name
    Chiller 1 CHW Outlet Node;  !- Node 1 Name

NodeList,
    Condenser Loop 2 Setpoint Manager Node List,  !- Name
    Condenser Loop 2 Supply Side Outlet;  !- Node 1 Name

NodeList,
    Condenser Loop 3 Setpoint Manager Node List,  !- Name
    Condenser Loop 3 Supply Side Outlet;  !- Node 1 Name


!-   ===========  ALL OBJECTS IN CLASS: OUTDOORAIR:NODELIST ===========

OutdoorAir:NodeList,
    Air Loop AHU Outdoor Air Inlet;  !- Node or NodeList Name 1

OutdoorAir:NodeList,
    Chilled Water Storage Outdoor Air Node;  !- Node or NodeList Name 1


!-   ===========  ALL OBJECTS IN CLASS: PIPE:ADIABATIC ===========

Pipe:Adiabatic,
    CHW Loop Demand Side Inlet Branch Pipe,  !- Name
    CHW Loop Demand Side Inlet,  !- Inlet Node Name
    CHW Loop Demand Side Inlet Branch Pipe Outlet;  !- Outlet Node Name

Pipe:Adiabatic,
    CHW Loop Demand Side Bypass Pipe,  !- Name
    CHW Loop Demand Side Bypass Pipe Inlet Node,  !- Inlet Node Name
    CHW Loop Demand Side Bypass Pipe Outlet Node;  !- Outlet Node Name

Pipe:Adiabatic,
    CHW Loop Demand Side Outlet Branch Pipe,  !- Name
    CHW Loop Demand Side Outlet Branch Pipe Inlet,  !- Inlet Node Name
    CHW Loop Demand Side Outlet;  !- Outlet Node Name

Pipe:Adiabatic,
    CHW Loop Supply Side Bypass Pipe,  !- Name
    CHW Loop Supply Side Bypass Pipe Inlet Node,  !- Inlet Node Name
    CHW Loop Supply Side Bypass Pipe Outlet Node;  !- Outlet Node Name

Pipe:Adiabatic,
    CHW Loop Supply Side Outlet Branch Pipe,  !- Name
    CHW Loop Supply Side Outlet Branch Pipe Inlet,  !- Inlet Node Name
    CHW Loop Supply Side Outlet;  !- Outlet Node Name

Pipe:Adiabatic,
    Condenser Loop Demand Side Inlet Branch Pipe,  !- Name
    Condenser Loop Demand Side Inlet,  !- Inlet Node Name
    Condenser Loop Demand Side Inlet Branch Pipe Outlet;  !- Outlet Node Name

Pipe:Adiabatic,
    Condenser Loop Demand Side Bypass Pipe,  !- Name
    Condenser Loop Demand Side Bypass Pipe Inlet Node,  !- Inlet Node Name
    Condenser Loop Demand Side Bypass Pipe Outlet Node;  !- Outlet Node Name

Pipe:Adiabatic,
    Condenser Loop Demand Side Outlet Branch Pipe,  !- Name
    Condenser Loop Demand Side Outlet Branch Pipe Inlet,  !- Inlet Node Name
    Condenser Loop Demand Side Outlet;  !- Outlet Node Name

Pipe:Adiabatic,
    Condenser Loop Supply Side Bypass Pipe,  !- Name
    Condenser Loop Supply Side Bypass Pipe Inlet Node,  !- Inlet Node Name
    Condenser Loop Supply Side Bypass Pipe Outlet Node;  !- Outlet Node Name

Pipe:Adiabatic,
    Condenser Loop Supply Side Outlet Branch Pipe,  !- Name
    Condenser Loop Supply Side Outlet Branch Pipe Inlet,  !- Inlet Node Name
    Condenser Loop Supply Side Outlet;  !- Outlet Node Name

Pipe:Adiabatic,
    Condenser Loop 1 Demand Side Inlet Branch Pipe,  !- Name
    Condenser Loop 1 Demand Side Inlet,  !- Inlet Node Name
    Condenser Loop 1 Demand Side Inlet Branch Pipe Outlet;  !- Outlet Node Name

Pipe:Adiabatic,
    Condenser Loop 1 Demand Side Bypass Pipe,  !- Name
    Condenser Loop 1 Demand Side Bypass Pipe Inlet Node,  !- Inlet Node Name
    Condenser Loop 1 Demand Side Bypass Pipe Outlet Node;  !- Outlet Node Name

Pipe:Adiabatic,
    Condenser Loop 1 Demand Side Outlet Branch Pipe,  !- Name
    Condenser Loop 1 Demand Side Outlet Branch Pipe Inlet,  !- Inlet Node Name
    Condenser Loop 1 Demand Side Outlet;  !- Outlet Node Name

Pipe:Adiabatic,
    Condenser Loop 1 Supply Side Bypass Pipe,  !- Name
    Condenser Loop 1 Supply Side Bypass Pipe Inlet Node,  !- Inlet Node Name
    Condenser Loop 1 Supply Side Bypass Pipe Outlet Node;  !- Outlet Node Name

Pipe:Adiabatic,
    Condenser Loop 1 Supply Side Outlet Branch Pipe,  !- Name
    Condenser Loop 1 Supply Side Outlet Branch Pipe Inlet,  !- Inlet Node Name
    Condenser Loop 1 Supply Side Outlet;  !- Outlet Node Name

Pipe:Adiabatic,
    CHW Loop 1 Demand Side Inlet Branch Pipe,  !- Name
    CHW Loop 1 Demand Side Inlet,  !- Inlet Node Name
    CHW Loop 1 Demand Side Inlet Branch Pipe Outlet;  !- Outlet Node Name

Pipe:Adiabatic,
    CHW Loop 1 Demand Side Bypass Pipe,  !- Name
    CHW Loop 1 Demand Side Bypass Pipe Inlet Node,  !- Inlet Node Name
    CHW Loop 1 Demand Side Bypass Pipe Outlet Node;  !- Outlet Node Name

Pipe:Adiabatic,
    CHW Loop 1 Demand Side Outlet Branch Pipe,  !- Name
    CHW Loop 1 Demand Side Outlet Branch Pipe Inlet,  !- Inlet Node Name
    CHW Loop 1 Demand Side Outlet;  !- Outlet Node Name

Pipe:Adiabatic,
    CHW Loop 1 Supply Side Bypass Pipe,  !- Name
    CHW Loop 1 Supply Side Bypass Pipe Inlet Node,  !- Inlet Node Name
    CHW Loop 1 Supply Side Bypass Pipe Outlet Node;  !- Outlet Node Name

Pipe:Adiabatic,
    CHW Loop 1 Supply Side Outlet Branch Pipe,  !- Name
    CHW Loop 1 Supply Side Outlet Branch Pipe Inlet,  !- Inlet Node Name
    CHW Loop 1 Supply Side Outlet;  !- Outlet Node Name

Pipe:Adiabatic,
    Condenser Loop 2 Demand Side Inlet Branch Pipe,  !- Name
    Condenser Loop 2 Demand Side Inlet,  !- Inlet Node Name
    Condenser Loop 2 Demand Side Inlet Branch Pipe Outlet;  !- Outlet Node Name

Pipe:Adiabatic,
    Condenser Loop 2 Demand Side Bypass Pipe,  !- Name
    Condenser Loop 2 Demand Side Bypass Pipe Inlet Node,  !- Inlet Node Name
    Condenser Loop 2 Demand Side Bypass Pipe Outlet Node;  !- Outlet Node Name

Pipe:Adiabatic,
    Condenser Loop 2 Demand Side Outlet Branch Pipe,  !- Name
    Condenser Loop 2 Demand Side Outlet Branch Pipe Inlet,  !- Inlet Node Name
    Condenser Loop 2 Demand Side Outlet;  !- Outlet Node Name

Pipe:Adiabatic,
    Condenser Loop 2 Supply Side Bypass Pipe,  !- Name
    Condenser Loop 2 Supply Side Bypass Pipe Inlet Node,  !- Inlet Node Name
    Condenser Loop 2 Supply Side Bypass Pipe Outlet Node;  !- Outlet Node Name

Pipe:Adiabatic,
    Condenser Loop 2 Supply Side Outlet Branch Pipe,  !- Name
    Condenser Loop 2 Supply Side Outlet Branch Pipe Inlet,  !- Inlet Node Name
    Condenser Loop 2 Supply Side Outlet;  !- Outlet Node Name

Pipe:Adiabatic,
    Condenser Loop 3 Demand Side Inlet Branch Pipe,  !- Name
    Condenser Loop 3 Demand Side Inlet,  !- Inlet Node Name
    Condenser Loop 3 Demand Side Inlet Branch Pipe Outlet;  !- Outlet Node Name

Pipe:Adiabatic,
    Condenser Loop 3 Demand Side Bypass Pipe,  !- Name
    Condenser Loop 3 Demand Side Bypass Pipe Inlet Node,  !- Inlet Node Name
    Condenser Loop 3 Demand Side Bypass Pipe Outlet Node;  !- Outlet Node Name

Pipe:Adiabatic,
    Condenser Loop 3 Demand Side Outlet Branch Pipe,  !- Name
    Condenser Loop 3 Demand Side Outlet Branch Pipe Inlet,  !- Inlet Node Name
    Condenser Loop 3 Demand Side Outlet;  !- Outlet Node Name

Pipe:Adiabatic,
    Condenser Loop 3 Supply Side Bypass Pipe,  !- Name
    Condenser Loop 3 Supply Side Bypass Pipe Inlet Node,  !- Inlet Node Name
    Condenser Loop 3 Supply Side Bypass Pipe Outlet Node;  !- Outlet Node Name

Pipe:Adiabatic,
    Condenser Loop 3 Supply Side Outlet Branch Pipe,  !- Name
    Condenser Loop 3 Supply Side Outlet Branch Pipe Inlet,  !- Inlet Node Name
    Condenser Loop 3 Supply Side Outlet;  !- Outlet Node Name


!-   ===========  ALL OBJECTS IN CLASS: PUMP:VARIABLESPEED ===========

Pump:VariableSpeed,
    CHW Loop Supply Pump,    !- Name
    CHW Loop Supply Side Inlet,  !- Inlet Node Name
    CHW Loop Supply Pump Water Outlet Node,  !- Outlet Node Name
    0.098930,                !- Design Maximum Flow Rate {m3/s}
    86500.00,                !- Design Pump Head {Pa}
    autosize,                !- Design Power Consumption {W}
    0.90,                    !- Motor Efficiency
    0.00,                    !- Fraction of Motor Inefficiencies to Fluid Stream
    0.0000,                  !- Coefficient 1 of the Part Load Performance Curve
    1.0000,                  !- Coefficient 2 of the Part Load Performance Curve
    0.0000,                  !- Coefficient 3 of the Part Load Performance Curve
    0.0000,                  !- Coefficient 4 of the Part Load Performance Curve
    0.000000,                !- Design Minimum Flow Rate {m3/s}
    Intermittent;            !- Pump Control Type

Pump:VariableSpeed,
    Condenser Loop Supply Pump,  !- Name
    Condenser Loop Supply Side Inlet,  !- Inlet Node Name
    Condenser Loop Supply Pump Water Outlet Node,  !- Outlet Node Name
    0.137610,                !- Design Maximum Flow Rate {m3/s}
    58200.00,                !- Design Pump Head {Pa}
    autosize,                !- Design Power Consumption {W}
    0.90,                    !- Motor Efficiency
    0.00,                    !- Fraction of Motor Inefficiencies to Fluid Stream
    0.0000,                  !- Coefficient 1 of the Part Load Performance Curve
    1.0000,                  !- Coefficient 2 of the Part Load Performance Curve
    0.0000,                  !- Coefficient 3 of the Part Load Performance Curve
    0.0000,                  !- Coefficient 4 of the Part Load Performance Curve
    0.000000,                !- Design Minimum Flow Rate {m3/s}
    Intermittent;            !- Pump Control Type

Pump:VariableSpeed,
    Condenser Loop 1 Supply Pump,  !- Name
    Condenser Loop 1 Supply Side Inlet,  !- Inlet Node Name
    Condenser Loop 1 Supply Pump Water Outlet Node,  !- Outlet Node Name
    0.136270,                !- Design Maximum Flow Rate {m3/s}
    58200.00,                !- Design Pump Head {Pa}
    autosize,                !- Design Power Consumption {W}
    0.90,                    !- Motor Efficiency
    0.00,                    !- Fraction of Motor Inefficiencies to Fluid Stream
    0.0000,                  !- Coefficient 1 of the Part Load Performance Curve
    1.0000,                  !- Coefficient 2 of the Part Load Performance Curve
    0.0000,                  !- Coefficient 3 of the Part Load Performance Curve
    0.0000,                  !- Coefficient 4 of the Part Load Performance Curve
    0.000000,                !- Design Minimum Flow Rate {m3/s}
    Intermittent;            !- Pump Control Type

Pump:VariableSpeed,
    CHW Loop 1 Supply Pump,  !- Name
    CHW Loop 1 Supply Side Inlet,  !- Inlet Node Name
    CHW Loop 1 Supply Pump Water Outlet Node,  !- Outlet Node Name
    0.098930,                !- Design Maximum Flow Rate {m3/s}
    86500.00,                !- Design Pump Head {Pa}
    autosize,                !- Design Power Consumption {W}
    0.90,                    !- Motor Efficiency
    0.00,                    !- Fraction of Motor Inefficiencies to Fluid Stream
    0.0000,                  !- Coefficient 1 of the Part Load Performance Curve
    1.0000,                  !- Coefficient 2 of the Part Load Performance Curve
    0.0000,                  !- Coefficient 3 of the Part Load Performance Curve
    0.0000,                  !- Coefficient 4 of the Part Load Performance Curve
    0.000000,                !- Design Minimum Flow Rate {m3/s}
    Intermittent;            !- Pump Control Type

Pump:VariableSpeed,
    Condenser Loop 2 Supply Pump,  !- Name
    Condenser Loop 2 Supply Side Inlet,  !- Inlet Node Name
    Condenser Loop 2 Supply Pump Water Outlet Node,  !- Outlet Node Name
    0.137610,                !- Design Maximum Flow Rate {m3/s}
    58200.00,                !- Design Pump Head {Pa}
    autosize,                !- Design Power Consumption {W}
    0.90,                    !- Motor Efficiency
    0.00,                    !- Fraction of Motor Inefficiencies to Fluid Stream
    0.0000,                  !- Coefficient 1 of the Part Load Performance Curve
    1.0000,                  !- Coefficient 2 of the Part Load Performance Curve
    0.0000,                  !- Coefficient 3 of the Part Load Performance Curve
    0.0000,                  !- Coefficient 4 of the Part Load Performance Curve
    0.000000,                !- Design Minimum Flow Rate {m3/s}
    Intermittent;            !- Pump Control Type

Pump:VariableSpeed,
    Condenser Loop 3 Supply Pump,  !- Name
    Condenser Loop 3 Supply Side Inlet,  !- Inlet Node Name
    Condenser Loop 3 Supply Pump Water Outlet Node,  !- Outlet Node Name
    0.136270,                !- Design Maximum Flow Rate {m3/s}
    58200.00,                !- Design Pump Head {Pa}
    autosize,                !- Design Power Consumption {W}
    0.90,                    !- Motor Efficiency
    0.00,                    !- Fraction of Motor Inefficiencies to Fluid Stream
    0.0000,                  !- Coefficient 1 of the Part Load Performance Curve
    1.0000,                  !- Coefficient 2 of the Part Load Performance Curve
    0.0000,                  !- Coefficient 3 of the Part Load Performance Curve
    0.0000,                  !- Coefficient 4 of the Part Load Performance Curve
    0.000000,                !- Design Minimum Flow Rate {m3/s}
    Intermittent;            !- Pump Control Type


!-   ===========  ALL OBJECTS IN CLASS: CHILLER:ELECTRIC:REFORMULATEDEIR ===========

Chiller:Electric:ReformulatedEIR,
    Chiller,                 !- Name
    2799200.000,             !- Reference Capacity {W}
    6.40,                    !- Reference COP {W/W}
    6.67,                    !- Reference Leaving Chilled Water Temperature {C}
    31.74,                   !- Reference Leaving Condenser Water Temperature {C}
    0.098930,                !- Reference Chilled Water Flow Rate {m3/s}
    0.137610,                !- Reference Condenser Water Flow Rate {m3/s}
    ReformEIRChiller Trane CVHF 2799kW/6.40COP/Vanes CAPFT,  !- Cooling Capacity Function of Temperature Curve Name
    ReformEIRChiller Trane CVHF 2799kW/6.40COP/Vanes EIRFT,  !- Electric Input to Cooling Output Ratio Function of Temperature Curve Name
    LeavingCondenserWaterTemperature,  !- Electric Input to Cooling Output Ratio Function of Part Load Ratio Curve Type
    ReformEIRChiller Trane CVHF 2799kW/6.40COP/Vanes EIRFPLR,  !- Electric Input to Cooling Output Ratio Function of Part Load Ratio Curve Name
    0.20,                    !- Minimum Part Load Ratio
    1.04,                    !- Maximum Part Load Ratio
    1.00,                    !- Optimum Part Load Ratio
    0.20,                    !- Minimum Unloading Ratio
    HX Supply Side Outlet Node,  !- Chilled Water Inlet Node Name
    Chiller CHW Outlet Node, !- Chilled Water Outlet Node Name
    Chiller Condenser Inlet Node,  !- Condenser Inlet Node Name
    Chiller Condenser Outlet Node,  !- Condenser Outlet Node Name
    1.00,                    !- Fraction of Compressor Electric Consumption Rejected by Condenser
    2.00,                    !- Leaving Chilled Water Lower Temperature Limit {C}
    LeavingSetpointModulated,!- Chiller Flow Mode Type
    0.0,                     !- Design Heat Recovery Water Flow Rate {m3/s}
    ,                        !- Heat Recovery Inlet Node Name
    ,                        !- Heat Recovery Outlet Node Name
    1.00,                    !- Sizing Factor
    1.00;                    !- Condenser Heat Recovery Relative Capacity Fraction

Chiller:Electric:ReformulatedEIR,
    Chiller 1,               !- Name
    2799200.000,             !- Reference Capacity {W}
    6.40,                    !- Reference COP {W/W}
    6.67,                    !- Reference Leaving Chilled Water Temperature {C}
    31.74,                   !- Reference Leaving Condenser Water Temperature {C}
    0.098930,                !- Reference Chilled Water Flow Rate {m3/s}
    0.137610,                !- Reference Condenser Water Flow Rate {m3/s}
    ReformEIRChiller Trane CVHF 2799kW/6.40COP/Vanes CAPFT,  !- Cooling Capacity Function of Temperature Curve Name
    ReformEIRChiller Trane CVHF 2799kW/6.40COP/Vanes EIRFT,  !- Electric Input to Cooling Output Ratio Function of Temperature Curve Name
    LeavingCondenserWaterTemperature,  !- Electric Input to Cooling Output Ratio Function of Part Load Ratio Curve Type
    ReformEIRChiller Trane CVHF 2799kW/6.40COP/Vanes EIRFPLR,  !- Electric Input to Cooling Output Ratio Function of Part Load Ratio Curve Name
    0.20,                    !- Minimum Part Load Ratio
    1.04,                    !- Maximum Part Load Ratio
    1.00,                    !- Optimum Part Load Ratio
    0.20,                    !- Minimum Unloading Ratio
    HX 1 Supply Side Outlet Node,  !- Chilled Water Inlet Node Name
    Chiller 1 CHW Outlet Node,  !- Chilled Water Outlet Node Name
    Chiller 1 Condenser Inlet Node,  !- Condenser Inlet Node Name
    Chiller 1 Condenser Outlet Node,  !- Condenser Outlet Node Name
    1.00,                    !- Fraction of Compressor Electric Consumption Rejected by Condenser
    2.00,                    !- Leaving Chilled Water Lower Temperature Limit {C}
    LeavingSetpointModulated,!- Chiller Flow Mode Type
    0.0,                     !- Design Heat Recovery Water Flow Rate {m3/s}
    ,                        !- Heat Recovery Inlet Node Name
    ,                        !- Heat Recovery Outlet Node Name
    1.00,                    !- Sizing Factor
    1.00;                    !- Condenser Heat Recovery Relative Capacity Fraction


!-   ===========  ALL OBJECTS IN CLASS: COOLINGTOWER:VARIABLESPEED ===========

CoolingTower:VariableSpeed,
    Cooling Tower,           !- Name
    Cooling Tower Water Inlet Node,  !- Water Inlet Node Name
    Cooling Tower Water Outlet Node,  !- Water Outlet Node Name
    CoolToolsCrossFlow,      !- Model Type
    ,                        !- Model Coefficient Name
    25.6000,                 !- Design Inlet Air Wet-Bulb Temperature {C}
    3.4000,                  !- Design Approach Temperature {deltaC}
    5.0000,                  !- Design Range Temperature {deltaC}
    0.136270,                !- Design Water Flow Rate {m3/s}
    autosize,                !- Design Air Flow Rate {m3/s}
    autosize,                !- Design Fan Power {W}
    VS tower fan power mod func air flow ratio,  !- Fan Power Ratio Function of Air Flow Rate Ratio Curve Name
    0.2000,                  !- Minimum Air Flow Rate Ratio
    0.1250,                  !- Fraction of Tower Capacity in Free Convection Regime
    0.00,                    !- Basin Heater Capacity {W/K}
    2.00,                    !- Basin Heater Setpoint Temperature {C}
    On 24/7,                 !- Basin Heater Operating Schedule Name
    SaturatedExit,           !- Evaporation Loss Mode
    0.2000,                  !- Evaporation Loss Factor {percent/K}
    0.008000,                !- Drift Loss Percent {percent}
    ConcentrationRatio,      !- Blowdown Calculation Mode
    3.00,                    !- Blowdown Concentration Ratio
    On 24/7,                 !- Blowdown Makeup Water Usage Schedule Name
    ,                        !- Supply Water Storage Tank Name
    ,                        !- Outdoor Air Inlet Node Name
    ,                        !- Number of Cells
    MinimalCell,             !- Cell Control
    0.3300,                  !- Cell Minimum  Water Flow Rate Fraction
    2.5000,                  !- Cell Maximum Water Flow Rate Fraction
    1.00;                    !- Sizing Factor

CoolingTower:VariableSpeed,
    Cooling Tower 1,         !- Name
    Cooling Tower 1 Water Inlet Node,  !- Water Inlet Node Name
    Cooling Tower 1 Water Outlet Node,  !- Water Outlet Node Name
    CoolToolsCrossFlow,      !- Model Type
    ,                        !- Model Coefficient Name
    25.6000,                 !- Design Inlet Air Wet-Bulb Temperature {C}
    3.4000,                  !- Design Approach Temperature {deltaC}
    5.0000,                  !- Design Range Temperature {deltaC}
    0.136270,                !- Design Water Flow Rate {m3/s}
    autosize,                !- Design Air Flow Rate {m3/s}
    autosize,                !- Design Fan Power {W}
    VS tower fan power mod func air flow ratio,  !- Fan Power Ratio Function of Air Flow Rate Ratio Curve Name
    0.2000,                  !- Minimum Air Flow Rate Ratio
    0.1250,                  !- Fraction of Tower Capacity in Free Convection Regime
    0.00,                    !- Basin Heater Capacity {W/K}
    2.00,                    !- Basin Heater Setpoint Temperature {C}
    On 24/7,                 !- Basin Heater Operating Schedule Name
    SaturatedExit,           !- Evaporation Loss Mode
    0.2000,                  !- Evaporation Loss Factor {percent/K}
    0.008000,                !- Drift Loss Percent {percent}
    ConcentrationRatio,      !- Blowdown Calculation Mode
    3.00,                    !- Blowdown Concentration Ratio
    On 24/7,                 !- Blowdown Makeup Water Usage Schedule Name
    ,                        !- Supply Water Storage Tank Name
    ,                        !- Outdoor Air Inlet Node Name
    ,                        !- Number of Cells
    MinimalCell,             !- Cell Control
    0.3300,                  !- Cell Minimum  Water Flow Rate Fraction
    2.5000,                  !- Cell Maximum Water Flow Rate Fraction
    1.00;                    !- Sizing Factor

CoolingTower:VariableSpeed,
    Cooling Tower 2,         !- Name
    Cooling Tower 2 Water Inlet Node,  !- Water Inlet Node Name
    Cooling Tower 2 Water Outlet Node,  !- Water Outlet Node Name
    CoolToolsCrossFlow,      !- Model Type
    ,                        !- Model Coefficient Name
    25.6000,                 !- Design Inlet Air Wet-Bulb Temperature {C}
    3.4000,                  !- Design Approach Temperature {deltaC}
    5.0000,                  !- Design Range Temperature {deltaC}
    0.136270,                !- Design Water Flow Rate {m3/s}
    autosize,                !- Design Air Flow Rate {m3/s}
    autosize,                !- Design Fan Power {W}
    VS tower fan power mod func air flow ratio,  !- Fan Power Ratio Function of Air Flow Rate Ratio Curve Name
    0.2000,                  !- Minimum Air Flow Rate Ratio
    0.1250,                  !- Fraction of Tower Capacity in Free Convection Regime
    0.00,                    !- Basin Heater Capacity {W/K}
    2.00,                    !- Basin Heater Setpoint Temperature {C}
    On 24/7,                 !- Basin Heater Operating Schedule Name
    SaturatedExit,           !- Evaporation Loss Mode
    0.2000,                  !- Evaporation Loss Factor {percent/K}
    0.008000,                !- Drift Loss Percent {percent}
    ConcentrationRatio,      !- Blowdown Calculation Mode
    3.00,                    !- Blowdown Concentration Ratio
    On 24/7,                 !- Blowdown Makeup Water Usage Schedule Name
    ,                        !- Supply Water Storage Tank Name
    ,                        !- Outdoor Air Inlet Node Name
    ,                        !- Number of Cells
    MinimalCell,             !- Cell Control
    0.3300,                  !- Cell Minimum  Water Flow Rate Fraction
    2.5000,                  !- Cell Maximum Water Flow Rate Fraction
    1.00;                    !- Sizing Factor

CoolingTower:VariableSpeed,
    Cooling Tower 3,         !- Name
    Cooling Tower 3 Water Inlet Node,  !- Water Inlet Node Name
    Cooling Tower 3 Water Outlet Node,  !- Water Outlet Node Name
    CoolToolsCrossFlow,      !- Model Type
    ,                        !- Model Coefficient Name
    25.6000,                 !- Design Inlet Air Wet-Bulb Temperature {C}
    3.4000,                  !- Design Approach Temperature {deltaC}
    5.0000,                  !- Design Range Temperature {deltaC}
    0.136270,                !- Design Water Flow Rate {m3/s}
    autosize,                !- Design Air Flow Rate {m3/s}
    autosize,                !- Design Fan Power {W}
    VS tower fan power mod func air flow ratio,  !- Fan Power Ratio Function of Air Flow Rate Ratio Curve Name
    0.2000,                  !- Minimum Air Flow Rate Ratio
    0.1250,                  !- Fraction of Tower Capacity in Free Convection Regime
    0.00,                    !- Basin Heater Capacity {W/K}
    2.00,                    !- Basin Heater Setpoint Temperature {C}
    On 24/7,                 !- Basin Heater Operating Schedule Name
    SaturatedExit,           !- Evaporation Loss Mode
    0.2000,                  !- Evaporation Loss Factor {percent/K}
    0.008000,                !- Drift Loss Percent {percent}
    ConcentrationRatio,      !- Blowdown Calculation Mode
    3.00,                    !- Blowdown Concentration Ratio
    On 24/7,                 !- Blowdown Makeup Water Usage Schedule Name
    ,                        !- Supply Water Storage Tank Name
    ,                        !- Outdoor Air Inlet Node Name
    ,                        !- Number of Cells
    MinimalCell,             !- Cell Control
    0.3300,                  !- Cell Minimum  Water Flow Rate Fraction
    2.5000,                  !- Cell Maximum Water Flow Rate Fraction
    1.00;                    !- Sizing Factor


!-   ===========  ALL OBJECTS IN CLASS: HEATEXCHANGER:FLUIDTOFLUID ===========

HeatExchanger:FluidToFluid,
    HX,                      !- Name
    On 24/7,                 !- Availability Schedule Name
    HX Demand Side Inlet Node,  !- Loop Demand Side Inlet Node Name
    HX Demand Side Outlet Node,  !- Loop Demand Side Outlet Node Name
    0.098930,                !- Loop Demand Side Design Flow Rate {m3/s}
    HX Supply Side Inlet Node,  !- Loop Supply Side Inlet Node Name
    HX Supply Side Outlet Node,  !- Loop Supply Side Outlet Node Name
    0.098930,                !- Loop Supply Side Design Flow Rate {m3/s}
    CounterFlow,             !- Heat Exchange Model Type
    100000000000.000000,     !- Heat Exchanger U-Factor Times Area Value {W/K}
    CoolingDifferentialOnOff,!- Control Type
    HX Supply Side Outlet Node,  !- Heat Exchanger Setpoint Node Name
    2.000000,                !- Minimum Temperature Difference to Activate Heat Exchanger {deltaC}
    FreeCooling,             !- Heat Transfer Metering End Use Type
    ,                        !- Component Override Loop Supply Side Inlet Node Name
    ,                        !- Component Override Loop Demand Side Inlet Node Name
    Loop,                    !- Component Override Cooling Control Temperature Mode
    0.9000;                  !- Sizing Factor

HeatExchanger:FluidToFluid,
    HX 1,                    !- Name
    On 24/7,                 !- Availability Schedule Name
    HX 1 Demand Side Inlet Node,  !- Loop Demand Side Inlet Node Name
    HX 1 Demand Side Outlet Node,  !- Loop Demand Side Outlet Node Name
    0.098930,                !- Loop Demand Side Design Flow Rate {m3/s}
    HX 1 Supply Side Inlet Node,  !- Loop Supply Side Inlet Node Name
    HX 1 Supply Side Outlet Node,  !- Loop Supply Side Outlet Node Name
    0.098930,                !- Loop Supply Side Design Flow Rate {m3/s}
    CounterFlow,             !- Heat Exchange Model Type
    100000000000.000000,     !- Heat Exchanger U-Factor Times Area Value {W/K}
    CoolingDifferentialOnOff,!- Control Type
    HX 1 Supply Side Outlet Node,  !- Heat Exchanger Setpoint Node Name
    2.000000,                !- Minimum Temperature Difference to Activate Heat Exchanger {deltaC}
    FreeCooling,             !- Heat Transfer Metering End Use Type
    ,                        !- Component Override Loop Supply Side Inlet Node Name
    ,                        !- Component Override Loop Demand Side Inlet Node Name
    Loop,                    !- Component Override Cooling Control Temperature Mode
    0.9000;                  !- Sizing Factor


!-   ===========  ALL OBJECTS IN CLASS: THERMALSTORAGE:CHILLEDWATER:STRATIFIED ===========

ThermalStorage:ChilledWater:Stratified,
    Chilled Water Storage,   !- Name
    550.000000,              !- Tank Volume {m3}
    8.200000,                !- Tank Height {m}
    VerticalCylinder,        !- Tank Shape
    4.000000,                !- Tank Perimeter {m}
    Chilled water storage cooling set point temperature Always 5 C,  !- Setpoint Temperature Schedule Name
    5.00,                    !- Deadband Temperature Difference {deltaC}
    0.6000,                  !- Temperature Sensor Height {m}
    1.00,                    !- Minimum Temperature Limit {C}
    6400000,                 !- Nominal Cooling Capacity {W}
    Outdoors,                !- Ambient Temperature Indicator
    Water heater ambient temperature schedule: Always 20.00,  !- Ambient Temperature Schedule Name
    ,                        !- Ambient Temperature Zone Name
    Chilled Water Storage Outdoor Air Node,  !- Ambient Temperature Outdoor Air Node Name
    0.8460,                  !- Uniform Skin Loss Coefficient per Unit Area to Ambient Temperature {W/m2-K}
    Chilled Water Storage Use side CHW Inlet Node,  !- Use Side Inlet Node Name
    Chilled Water Storage Use side CHW Outlet Node,  !- Use Side Outlet Node Name
    1.00,                    !- Use Side Heat Transfer Effectiveness
    13:00 - 19:00 Every day, !- Use Side Availability Schedule Name
    8.0000,                  !- Use Side Inlet Height {m}
    0.2000,                  !- Use Side Outlet Height {m}
    0.098930,                !- Use Side Design Flow Rate {m3/s}
    Chilled Water Storage Source side CHW Inlet Node,  !- Source Side Inlet Node Name
    Chilled Water Storage Source side CHW Outlet Node,  !- Source Side Outlet Node Name
    1.00,                    !- Source Side Heat Transfer Effectiveness
    2:00 - 5:00 Every day,   !- Source Side Availability Schedule Name
    0.2000,                  !- Source Side Inlet Height {m}
    8.0000,                  !- Source Side Outlet Height {m}
    0.049465,                !- Source Side Design Flow Rate {m3/s}
    1.500000,                !- Tank Recovery Time {hr}
    Seeking,                 !- Inlet Mode
    10,                      !- Number of Nodes
    0.1000,                  !- Additional Destratification Conductivity {W/m-K}
    0.1000,                  !- Node 1 Additional Loss Coefficient {W/K}
    0.1000,                  !- Node 2 Additional Loss Coefficient {W/K}
    0.1000,                  !- Node 3 Additional Loss Coefficient {W/K}
    0.1000,                  !- Node 4 Additional Loss Coefficient {W/K}
    0.1000,                  !- Node 5 Additional Loss Coefficient {W/K}
    0.1000,                  !- Node 6 Additional Loss Coefficient {W/K}
    0.1000,                  !- Node 7 Additional Loss Coefficient {W/K}
    0.1000,                  !- Node 8 Additional Loss Coefficient {W/K}
    0.1000,                  !- Node 9 Additional Loss Coefficient {W/K}
    0.1000;                  !- Node 10 Additional Loss Coefficient {W/K}


!-   ===========  ALL OBJECTS IN CLASS: PLANTLOOP ===========

PlantLoop,
    CHW Loop,                !- Name
    Water,                   !- Fluid Type
    ,                        !- User Defined Fluid Type
    CHW Loop Operation,      !- Plant Equipment Operation Scheme Name
    CHW Loop Supply Side Outlet,  !- Loop Temperature Setpoint Node Name
    80.00,                   !- Maximum Loop Temperature {C}
    10.00,                   !- Minimum Loop Temperature {C}
    0.098930,                !- Maximum Loop Flow Rate {m3/s}
    0.000000,                !- Minimum Loop Flow Rate {m3/s}
    autocalculate,           !- Plant Loop Volume {m3}
    CHW Loop Supply Side Inlet,  !- Plant Side Inlet Node Name
    CHW Loop Supply Side Outlet,  !- Plant Side Outlet Node Name
    CHW Loop Supply Side Branches,  !- Plant Side Branch List Name
    CHW Loop Supply Side Connectors,  !- Plant Side Connector List Name
    CHW Loop Demand Side Inlet,  !- Demand Side Inlet Node Name
    CHW Loop Demand Side Outlet,  !- Demand Side Outlet Node Name
    CHW Loop Demand Side Branches,  !- Demand Side Branch List Name
    CHW Loop Demand Side Connectors,  !- Demand Side Connector List Name
    SequentialLoad,          !- Load Distribution Scheme
    CHW Loop AvailabilityManager List,  !- Availability Manager List Name
    SingleSetpoint,          !- Plant Loop Demand Calculation Scheme
    None,                    !- Common Pipe Simulation
    None;                    !- Pressure Simulation Type

PlantLoop,
    CHW Loop 1,              !- Name
    Water,                   !- Fluid Type
    ,                        !- User Defined Fluid Type
    CHW Loop 1 Operation,    !- Plant Equipment Operation Scheme Name
    CHW Loop 1 Supply Side Outlet,  !- Loop Temperature Setpoint Node Name
    80.00,                   !- Maximum Loop Temperature {C}
    5.00,                    !- Minimum Loop Temperature {C}
    0.098930,                !- Maximum Loop Flow Rate {m3/s}
    0.000000,                !- Minimum Loop Flow Rate {m3/s}
    autocalculate,           !- Plant Loop Volume {m3}
    CHW Loop 1 Supply Side Inlet,  !- Plant Side Inlet Node Name
    CHW Loop 1 Supply Side Outlet,  !- Plant Side Outlet Node Name
    CHW Loop 1 Supply Side Branches,  !- Plant Side Branch List Name
    CHW Loop 1 Supply Side Connectors,  !- Plant Side Connector List Name
    CHW Loop 1 Demand Side Inlet,  !- Demand Side Inlet Node Name
    CHW Loop 1 Demand Side Outlet,  !- Demand Side Outlet Node Name
    CHW Loop 1 Demand Side Branches,  !- Demand Side Branch List Name
    CHW Loop 1 Demand Side Connectors,  !- Demand Side Connector List Name
    SequentialLoad,          !- Load Distribution Scheme
    CHW Loop 1 AvailabilityManager List,  !- Availability Manager List Name
    SingleSetpoint,          !- Plant Loop Demand Calculation Scheme
    None,                    !- Common Pipe Simulation
    None;                    !- Pressure Simulation Type


!-   ===========  ALL OBJECTS IN CLASS: CONDENSERLOOP ===========

CondenserLoop,
    Condenser Loop,          !- Name
    Water,                   !- Fluid Type
    ,                        !- User Defined Fluid Type
    Condenser Loop Operation,!- Condenser Equipment Operation Scheme Name
    Condenser Loop Supply Side Outlet,  !- Condenser Loop Temperature Setpoint Node Name
    50.00,                   !- Maximum Loop Temperature {C}
    5.00,                    !- Minimum Loop Temperature {C}
    0.137610,                !- Maximum Loop Flow Rate {m3/s}
    0.000000,                !- Minimum Loop Flow Rate {m3/s}
    autocalculate,           !- Condenser Loop Volume {m3}
    Condenser Loop Supply Side Inlet,  !- Condenser Side Inlet Node Name
    Condenser Loop Supply Side Outlet,  !- Condenser Side Outlet Node Name
    Condenser Loop Supply Side Branches,  !- Condenser Side Branch List Name
    Condenser Loop Supply Side Connectors,  !- Condenser Side Connector List Name
    Condenser Loop Demand Side Inlet,  !- Demand Side Inlet Node Name
    Condenser Loop Demand Side Outlet,  !- Demand Side Outlet Node Name
    Condenser Loop Demand Side Branches,  !- Condenser Demand Side Branch List Name
    Condenser Loop Demand Side Connectors,  !- Condenser Demand Side Connector List Name
    SequentialLoad,          !- Load Distribution Scheme
    None;                    !- Pressure Simulation Type

CondenserLoop,
    Condenser Loop 1,        !- Name
    Water,                   !- Fluid Type
    ,                        !- User Defined Fluid Type
    Condenser Loop 1 Operation,  !- Condenser Equipment Operation Scheme Name
    Condenser Loop 1 Supply Side Outlet,  !- Condenser Loop Temperature Setpoint Node Name
    50.00,                   !- Maximum Loop Temperature {C}
    0.00,                    !- Minimum Loop Temperature {C}
    0.136270,                !- Maximum Loop Flow Rate {m3/s}
    0.000000,                !- Minimum Loop Flow Rate {m3/s}
    autocalculate,           !- Condenser Loop Volume {m3}
    Condenser Loop 1 Supply Side Inlet,  !- Condenser Side Inlet Node Name
    Condenser Loop 1 Supply Side Outlet,  !- Condenser Side Outlet Node Name
    Condenser Loop 1 Supply Side Branches,  !- Condenser Side Branch List Name
    Condenser Loop 1 Supply Side Connectors,  !- Condenser Side Connector List Name
    Condenser Loop 1 Demand Side Inlet,  !- Demand Side Inlet Node Name
    Condenser Loop 1 Demand Side Outlet,  !- Demand Side Outlet Node Name
    Condenser Loop 1 Demand Side Branches,  !- Condenser Demand Side Branch List Name
    Condenser Loop 1 Demand Side Connectors,  !- Condenser Demand Side Connector List Name
    SequentialLoad,          !- Load Distribution Scheme
    None;                    !- Pressure Simulation Type

CondenserLoop,
    Condenser Loop 2,        !- Name
    Water,                   !- Fluid Type
    ,                        !- User Defined Fluid Type
    Condenser Loop 2 Operation,  !- Condenser Equipment Operation Scheme Name
    Condenser Loop 2 Supply Side Outlet,  !- Condenser Loop Temperature Setpoint Node Name
    50.00,                   !- Maximum Loop Temperature {C}
    5.00,                    !- Minimum Loop Temperature {C}
    0.137610,                !- Maximum Loop Flow Rate {m3/s}
    0.000000,                !- Minimum Loop Flow Rate {m3/s}
    autocalculate,           !- Condenser Loop Volume {m3}
    Condenser Loop 2 Supply Side Inlet,  !- Condenser Side Inlet Node Name
    Condenser Loop 2 Supply Side Outlet,  !- Condenser Side Outlet Node Name
    Condenser Loop 2 Supply Side Branches,  !- Condenser Side Branch List Name
    Condenser Loop 2 Supply Side Connectors,  !- Condenser Side Connector List Name
    Condenser Loop 2 Demand Side Inlet,  !- Demand Side Inlet Node Name
    Condenser Loop 2 Demand Side Outlet,  !- Demand Side Outlet Node Name
    Condenser Loop 2 Demand Side Branches,  !- Condenser Demand Side Branch List Name
    Condenser Loop 2 Demand Side Connectors,  !- Condenser Demand Side Connector List Name
    SequentialLoad,          !- Load Distribution Scheme
    None;                    !- Pressure Simulation Type

CondenserLoop,
    Condenser Loop 3,        !- Name
    Water,                   !- Fluid Type
    ,                        !- User Defined Fluid Type
    Condenser Loop 3 Operation,  !- Condenser Equipment Operation Scheme Name
    Condenser Loop 3 Supply Side Outlet,  !- Condenser Loop Temperature Setpoint Node Name
    50.00,                   !- Maximum Loop Temperature {C}
    0.00,                    !- Minimum Loop Temperature {C}
    0.136270,                !- Maximum Loop Flow Rate {m3/s}
    0.000000,                !- Minimum Loop Flow Rate {m3/s}
    autocalculate,           !- Condenser Loop Volume {m3}
    Condenser Loop 3 Supply Side Inlet,  !- Condenser Side Inlet Node Name
    Condenser Loop 3 Supply Side Outlet,  !- Condenser Side Outlet Node Name
    Condenser Loop 3 Supply Side Branches,  !- Condenser Side Branch List Name
    Condenser Loop 3 Supply Side Connectors,  !- Condenser Side Connector List Name
    Condenser Loop 3 Demand Side Inlet,  !- Demand Side Inlet Node Name
    Condenser Loop 3 Demand Side Outlet,  !- Demand Side Outlet Node Name
    Condenser Loop 3 Demand Side Branches,  !- Condenser Demand Side Branch List Name
    Condenser Loop 3 Demand Side Connectors,  !- Condenser Demand Side Connector List Name
    SequentialLoad,          !- Load Distribution Scheme
    None;                    !- Pressure Simulation Type


!-   ===========  ALL OBJECTS IN CLASS: PLANTEQUIPMENTLIST ===========

PlantEquipmentList,
    CHW Loop Scheme 1 Range 1 Equipment List,  !- Name
    ThermalStorage:ChilledWater:Stratified,  !- Equipment 1 Object Type
    Chilled Water Storage,   !- Equipment 1 Name
    Chiller:Electric:ReformulatedEIR,  !- Equipment 2 Object Type
    Chiller,                 !- Equipment 2 Name
    HeatExchanger:FluidToFluid,  !- Equipment 3 Object Type
    HX;                      !- Equipment 3 Name

PlantEquipmentList,
    CHW Loop 1 Scheme 1 Range 1 Equipment List,  !- Name
    HeatExchanger:FluidToFluid,  !- Equipment 1 Object Type
    HX 1,                    !- Equipment 1 Name
    Chiller:Electric:ReformulatedEIR,  !- Equipment 2 Object Type
    Chiller 1;               !- Equipment 2 Name


!-   ===========  ALL OBJECTS IN CLASS: CONDENSEREQUIPMENTLIST ===========

CondenserEquipmentList,
    Condenser Loop Scheme 1 Range 1 Equipment List,  !- Name
    CoolingTower:VariableSpeed,  !- Equipment 1 Object Type
    Cooling Tower;           !- Equipment 1 Name

CondenserEquipmentList,
    Condenser Loop 1 Scheme 1 Range 1 Equipment List,  !- Name
    CoolingTower:VariableSpeed,  !- Equipment 1 Object Type
    Cooling Tower 1;         !- Equipment 1 Name

CondenserEquipmentList,
    Condenser Loop 2 Scheme 1 Range 1 Equipment List,  !- Name
    CoolingTower:VariableSpeed,  !- Equipment 1 Object Type
    Cooling Tower 2;         !- Equipment 1 Name

CondenserEquipmentList,
    Condenser Loop 3 Scheme 1 Range 1 Equipment List,  !- Name
    CoolingTower:VariableSpeed,  !- Equipment 1 Object Type
    Cooling Tower 3;         !- Equipment 1 Name


!-   ===========  ALL OBJECTS IN CLASS: PLANTEQUIPMENTOPERATION:COOLINGLOAD ===========

PlantEquipmentOperation:CoolingLoad,
    CHW Loop Scheme 1,       !- Name
    0.00,                    !- Load Range 1 Lower Limit {W}
    10000000000.00,          !- Load Range 1 Upper Limit {W}
    CHW Loop Scheme 1 Range 1 Equipment List;  !- Range 1 Equipment List Name

PlantEquipmentOperation:CoolingLoad,
    Condenser Loop Scheme 1, !- Name
    0.00,                    !- Load Range 1 Lower Limit {W}
    1000000000000000.00,     !- Load Range 1 Upper Limit {W}
    Condenser Loop Scheme 1 Range 1 Equipment List;  !- Range 1 Equipment List Name

PlantEquipmentOperation:CoolingLoad,
    Condenser Loop 1 Scheme 1,  !- Name
    0.00,                    !- Load Range 1 Lower Limit {W}
    1000000000000000.00,     !- Load Range 1 Upper Limit {W}
    Condenser Loop 1 Scheme 1 Range 1 Equipment List;  !- Range 1 Equipment List Name

PlantEquipmentOperation:CoolingLoad,
    CHW Loop 1 Scheme 1,     !- Name
    0.00,                    !- Load Range 1 Lower Limit {W}
    1000000000000000.00,     !- Load Range 1 Upper Limit {W}
    CHW Loop 1 Scheme 1 Range 1 Equipment List;  !- Range 1 Equipment List Name

PlantEquipmentOperation:CoolingLoad,
    Condenser Loop 2 Scheme 1,  !- Name
    0.00,                    !- Load Range 1 Lower Limit {W}
    1000000000000000.00,     !- Load Range 1 Upper Limit {W}
    Condenser Loop 2 Scheme 1 Range 1 Equipment List;  !- Range 1 Equipment List Name

PlantEquipmentOperation:CoolingLoad,
    Condenser Loop 3 Scheme 1,  !- Name
    0.00,                    !- Load Range 1 Lower Limit {W}
    1000000000000000.00,     !- Load Range 1 Upper Limit {W}
    Condenser Loop 3 Scheme 1 Range 1 Equipment List;  !- Range 1 Equipment List Name


!-   ===========  ALL OBJECTS IN CLASS: PLANTEQUIPMENTOPERATIONSCHEMES ===========

PlantEquipmentOperationSchemes,
    CHW Loop Operation,      !- Name
    PlantEquipmentOperation:CoolingLoad,  !- Control Scheme 1 Object Type
    CHW Loop Scheme 1,       !- Control Scheme 1 Name
    On 24/7;                 !- Control Scheme 1 Schedule Name

PlantEquipmentOperationSchemes,
    CHW Loop 1 Operation,    !- Name
    PlantEquipmentOperation:CoolingLoad,  !- Control Scheme 1 Object Type
    CHW Loop 1 Scheme 1,     !- Control Scheme 1 Name
    2:00 - 5:00 Every day;   !- Control Scheme 1 Schedule Name


!-   ===========  ALL OBJECTS IN CLASS: CONDENSEREQUIPMENTOPERATIONSCHEMES ===========

CondenserEquipmentOperationSchemes,
    Condenser Loop Operation,!- Name
    PlantEquipmentOperation:CoolingLoad,  !- Control Scheme 1 Object Type
    Condenser Loop Scheme 1, !- Control Scheme 1 Name
    On 24/7;                 !- Control Scheme 1 Schedule Name

CondenserEquipmentOperationSchemes,
    Condenser Loop 1 Operation,  !- Name
    PlantEquipmentOperation:CoolingLoad,  !- Control Scheme 1 Object Type
    Condenser Loop 1 Scheme 1,  !- Control Scheme 1 Name
    On 24/7;                 !- Control Scheme 1 Schedule Name

CondenserEquipmentOperationSchemes,
    Condenser Loop 2 Operation,  !- Name
    PlantEquipmentOperation:CoolingLoad,  !- Control Scheme 1 Object Type
    Condenser Loop 2 Scheme 1,  !- Control Scheme 1 Name
    On 24/7;                 !- Control Scheme 1 Schedule Name

CondenserEquipmentOperationSchemes,
    Condenser Loop 3 Operation,  !- Name
    PlantEquipmentOperation:CoolingLoad,  !- Control Scheme 1 Object Type
    Condenser Loop 3 Scheme 1,  !- Control Scheme 1 Name
    On 24/7;                 !- Control Scheme 1 Schedule Name


!-   ===========  ALL OBJECTS IN CLASS: AVAILABILITYMANAGER:SCHEDULED ===========

AvailabilityManager:Scheduled,
    Air Loop Availability,   !- Name
    On 24/7;                 !- Schedule Name

AvailabilityManager:Scheduled,
    CHW Loop Availability,   !- Name
    On 24/7;                 !- Schedule Name

AvailabilityManager:Scheduled,
    Condenser Loop Availability,  !- Name
    On 24/7;                 !- Schedule Name

AvailabilityManager:Scheduled,
    Condenser Loop 1 Availability,  !- Name
    On 24/7;                 !- Schedule Name

AvailabilityManager:Scheduled,
    CHW Loop 1 Availability, !- Name
    2:00 - 5:00 Every day;   !- Schedule Name

AvailabilityManager:Scheduled,
    Condenser Loop 2 Availability,  !- Name
    On 24/7;                 !- Schedule Name

AvailabilityManager:Scheduled,
    Condenser Loop 3 Availability,  !- Name
    On 24/7;                 !- Schedule Name


!-   ===========  ALL OBJECTS IN CLASS: AVAILABILITYMANAGERASSIGNMENTLIST ===========

AvailabilityManagerAssignmentList,
    Air Loop AvailabilityManager List,  !- Name
    AvailabilityManager:Scheduled,  !- Availability Manager 1 Object Type
    Air Loop Availability;   !- Availability Manager 1 Name

AvailabilityManagerAssignmentList,
    CHW Loop AvailabilityManager List,  !- Name
    AvailabilityManager:Scheduled,  !- Availability Manager 1 Object Type
    CHW Loop Availability;   !- Availability Manager 1 Name

AvailabilityManagerAssignmentList,
    Condenser Loop AvailabilityManager List,  !- Name
    AvailabilityManager:Scheduled,  !- Availability Manager 1 Object Type
    Condenser Loop Availability;  !- Availability Manager 1 Name

AvailabilityManagerAssignmentList,
    Condenser Loop 1 AvailabilityManager List,  !- Name
    AvailabilityManager:Scheduled,  !- Availability Manager 1 Object Type
    Condenser Loop 1 Availability;  !- Availability Manager 1 Name

AvailabilityManagerAssignmentList,
    CHW Loop 1 AvailabilityManager List,  !- Name
    AvailabilityManager:Scheduled,  !- Availability Manager 1 Object Type
    CHW Loop 1 Availability; !- Availability Manager 1 Name

AvailabilityManagerAssignmentList,
    Condenser Loop 2 AvailabilityManager List,  !- Name
    AvailabilityManager:Scheduled,  !- Availability Manager 1 Object Type
    Condenser Loop 2 Availability;  !- Availability Manager 1 Name

AvailabilityManagerAssignmentList,
    Condenser Loop 3 AvailabilityManager List,  !- Name
    AvailabilityManager:Scheduled,  !- Availability Manager 1 Object Type
    Condenser Loop 3 Availability;  !- Availability Manager 1 Name


!-   ===========  ALL OBJECTS IN CLASS: SETPOINTMANAGER:SCHEDULED ===========

SetpointManager:Scheduled,
    Air Loop Setpoint Manager,  !- Name
    Temperature,             !- Control Variable
    Air loop cooling set point temperature: Always 16.0 C,  !- Schedule Name
    Air Loop Setpoint Manager Node List;  !- Setpoint Node or NodeList Name

SetpointManager:Scheduled,
    CHW Loop Setpoint Manager,  !- Name
    Temperature,             !- Control Variable
    Chilled water flow set point temperature: Always 10 C,  !- Schedule Name
    CHW Loop Setpoint Manager Node List;  !- Setpoint Node or NodeList Name

SetpointManager:Scheduled,
    CHW Loop Setpoint Manager 1,  !- Name
    Temperature,             !- Control Variable
    Chilled water flow set point temperature: Always 10 C,  !- Schedule Name
    CHW Loop Setpoint Manager 1 Node List;  !- Setpoint Node or NodeList Name

SetpointManager:Scheduled,
    CHW Loop 1 Setpoint Manager,  !- Name
    Temperature,             !- Control Variable
    Chilled water flow set point temperature: Always 5 C,  !- Schedule Name
    CHW Loop 1 Setpoint Manager Node List;  !- Setpoint Node or NodeList Name

SetpointManager:Scheduled,
    CHW Loop 1 Setpoint Manager 1,  !- Name
    Temperature,             !- Control Variable
    Chilled water flow set point temperature: Always 5 C,  !- Schedule Name
    CHW Loop 1 Setpoint Manager 1 Node List;  !- Setpoint Node or NodeList Name


!-   ===========  ALL OBJECTS IN CLASS: SETPOINTMANAGER:MIXEDAIR ===========

SetpointManager:MixedAir,
    Air Loop AHU Outdoor air system Mixed Air Manager,  !- Name
    Temperature,             !- Control Variable
    Air Loop Supply Side Outlet 1,  !- Reference Setpoint Node Name
    Air Loop AHU Cooling Coil Air Outlet Node,  !- Fan Inlet Node Name
    Air Loop Supply Side Outlet 1,  !- Fan Outlet Node Name
    Air Loop AHU Mixed Air Outlet;  !- Setpoint Node or NodeList Name

SetpointManager:MixedAir,
    Air Loop AHU Cooling Coil Mixed Air Manager,  !- Name
    Temperature,             !- Control Variable
    Air Loop Supply Side Outlet 1,  !- Reference Setpoint Node Name
    Air Loop AHU Cooling Coil Air Outlet Node,  !- Fan Inlet Node Name
    Air Loop Supply Side Outlet 1,  !- Fan Outlet Node Name
    Air Loop AHU Cooling Coil Air Outlet Node;  !- Setpoint Node or NodeList Name


!-   ===========  ALL OBJECTS IN CLASS: SETPOINTMANAGER:FOLLOWOUTDOORAIRTEMPERATURE ===========

SetpointManager:FollowOutdoorAirTemperature,
    Condenser Loop Setpoint Manager,  !- Name
    Temperature,             !- Control Variable
    OutdoorAirWetBulb,       !- Reference Temperature Type
    1.50,                    !- Offset Temperature Difference {deltaC}
    50.00,                   !- Maximum Setpoint Temperature {C}
    10.00,                   !- Minimum Setpoint Temperature {C}
    Condenser Loop Setpoint Manager Node List;  !- Setpoint Node or NodeList Name

SetpointManager:FollowOutdoorAirTemperature,
    Condenser Loop 1 Setpoint Manager,  !- Name
    Temperature,             !- Control Variable
    OutdoorAirWetBulb,       !- Reference Temperature Type
    1.50,                    !- Offset Temperature Difference {deltaC}
    50.00,                   !- Maximum Setpoint Temperature {C}
    0.00,                    !- Minimum Setpoint Temperature {C}
    Condenser Loop 1 Setpoint Manager Node List;  !- Setpoint Node or NodeList Name

SetpointManager:FollowOutdoorAirTemperature,
    Condenser Loop 2 Setpoint Manager,  !- Name
    Temperature,             !- Control Variable
    OutdoorAirWetBulb,       !- Reference Temperature Type
    1.50,                    !- Offset Temperature Difference {deltaC}
    50.00,                   !- Maximum Setpoint Temperature {C}
    10.00,                   !- Minimum Setpoint Temperature {C}
    Condenser Loop 2 Setpoint Manager Node List;  !- Setpoint Node or NodeList Name

SetpointManager:FollowOutdoorAirTemperature,
    Condenser Loop 3 Setpoint Manager,  !- Name
    Temperature,             !- Control Variable
    OutdoorAirWetBulb,       !- Reference Temperature Type
    1.50,                    !- Offset Temperature Difference {deltaC}
    50.00,                   !- Maximum Setpoint Temperature {C}
    0.00,                    !- Minimum Setpoint Temperature {C}
    Condenser Loop 3 Setpoint Manager Node List;  !- Setpoint Node or NodeList Name


!-   ===========  ALL OBJECTS IN CLASS: CURVE:LINEAR ===========

! Curve: VS tower UA mod func wetbulb difference
Curve:Linear,
    VS tower UA mod func wetbulb difference,  !- Name
    1,                       !- Coefficient1 Constant
    0.0081,                  !- Coefficient2 x
    -10,                     !- Minimum Value of x
    25,                      !- Maximum Value of x
    0.85,                    !- Minimum Curve Output
    1.3,                     !- Maximum Curve Output
    Dimensionless,           !- Input Unit Type for X
    Dimensionless;           !- Output Unit Type


!-   ===========  ALL OBJECTS IN CLASS: CURVE:QUADRATIC ===========

! Curve: PumpUseFPLR
Curve:Quadratic,
    PumpUseFPLR,             !- Name
    1,                       !- Coefficient1 Constant
    0,                       !- Coefficient2 x
    0,                       !- Coefficient3 x**2
    0.15,                    !- Minimum Value of x
    1;                       !- Maximum Value of x

! Curve: VS tower UA mod func air flow ratio
Curve:Quadratic,
    VS tower UA mod func air flow ratio,  !- Name
    0.0,                     !- Coefficient1 Constant
    1.3,                     !- Coefficient2 x
    -0.3,                    !- Coefficient3 x**2
    0.2,                     !- Minimum Value of x
    1,                       !- Maximum Value of x
    0.0,                     !- Minimum Curve Output
    1.0,                     !- Maximum Curve Output
    Dimensionless,           !- Input Unit Type for X
    Dimensionless;           !- Output Unit Type

! Curve: VS tower UA mod func water flow ratio
Curve:Quadratic,
    VS tower UA mod func water flow ratio,  !- Name
    0.1082,                  !- Coefficient1 Constant
    1.667,                   !- Coefficient2 x
    -0.7713,                 !- Coefficient3 x**2
    0.3,                     !- Minimum Value of x
    1,                       !- Maximum Value of x
    0.5,                     !- Minimum Curve Output
    1.1,                     !- Maximum Curve Output
    Dimensionless,           !- Input Unit Type for X
    Dimensionless;           !- Output Unit Type


!-   ===========  ALL OBJECTS IN CLASS: CURVE:CUBIC ===========

! Curve: DefaultFanEffRatioCurve
Curve:Cubic,
    DefaultFanEffRatioCurve, !- Name
    0.33856828,              !- Coefficient1 Constant
    1.72644131,              !- Coefficient2 x
    -1.49280132,             !- Coefficient3 x**2
    0.42776208,              !- Coefficient4 x**3
    0.5,                     !- Minimum Value of x
    1.5,                     !- Maximum Value of x
    0.3,                     !- Minimum Curve Output
    1.0;                     !- Maximum Curve Output

! Curve: ElectronicEnthalpyCurve
Curve:Cubic,
    ElectronicEnthalpyCurve, !- Name
    0.01342704,              !- Coefficient1 Constant
    -0.00047892,             !- Coefficient2 x
    0.000053352,             !- Coefficient3 x**2
    -0.0000018103,           !- Coefficient4 x**3
    16.6,                    !- Minimum Value of x
    29.13;                   !- Maximum Value of x

! Curve: SteamUseFPLR
Curve:Cubic,
    SteamUseFPLR,            !- Name
    0.18892,                 !- Coefficient1 Constant
    0.968044,                !- Coefficient2 x
    1.119202,                !- Coefficient3 x**2
    -.5034,                  !- Coefficient4 x**3
    0.15,                    !- Minimum Value of x
    1;                       !- Maximum Value of x

! Curve: SteamFCondTemp
Curve:Cubic,
    SteamFCondTemp,          !- Name
    0.712019,                !- Coefficient1 Constant
    -.00478,                 !- Coefficient2 x
    0.000864,                !- Coefficient3 x**2
    -.000013,                !- Coefficient4 x**3
    7,                       !- Minimum Value of x
    30,                      !- Maximum Value of x
    ,                        !- Minimum Curve Output
    ,                        !- Maximum Curve Output
    Temperature,             !- Input Unit Type for X
    Dimensionless;           !- Output Unit Type

! Curve: CAPfCOND
Curve:Cubic,
    CAPfCOND,                !- Name
    0.245507,                !- Coefficient1 Constant
    0.023614,                !- Coefficient2 x
    0.0000278,               !- Coefficient3 x**2
    0.000013,                !- Coefficient4 x**3
    7,                       !- Minimum Value of x
    25,                      !- Maximum Value of x
    ,                        !- Minimum Curve Output
    ,                        !- Maximum Curve Output
    Temperature;             !- Input Unit Type for X

! Curve: CAPfEVAP
Curve:Cubic,
    CAPfEVAP,                !- Name
    0.690571,                !- Coefficient1 Constant
    0.065571,                !- Coefficient2 x
    -.00289,                 !- Coefficient3 x**2
    0,                       !- Coefficient4 x**3
    4,                       !- Minimum Value of x
    10,                      !- Maximum Value of x
    ,                        !- Minimum Curve Output
    ,                        !- Maximum Curve Output
    Temperature;             !- Input Unit Type for X

! Curve: ConstFGenCorrTemp
Curve:Cubic,
    ConstFGenCorrTemp,       !- Name
    1,                       !- Coefficient1 Constant
    0,                       !- Coefficient2 x
    0,                       !- Coefficient3 x**2
    0,                       !- Coefficient4 x**3
    20,                      !- Minimum Value of x
    100,                     !- Maximum Value of x
    ,                        !- Minimum Curve Output
    ,                        !- Maximum Curve Output
    Temperature;             !- Input Unit Type for X

! Curve: VS tower fan power mod func air flow ratio
Curve:Cubic,
    VS tower fan power mod func air flow ratio,  !- Name
    0.02,                    !- Coefficient1 Constant
    0.0,                     !- Coefficient2 x
    0.0,                     !- Coefficient3 x**2
    0.98,                    !- Coefficient4 x**3
    0.2,                     !- Minimum Value of x
    1.0,                     !- Maximum Value of x
    0.0,                     !- Minimum Curve Output
    1.0,                     !- Maximum Curve Output
    Dimensionless,           !- Input Unit Type for X
    Dimensionless;           !- Output Unit Type


!-   ===========  ALL OBJECTS IN CLASS: CURVE:EXPONENT ===========

! Curve: DefaultFanPowerRatioCurve
Curve:Exponent,
    DefaultFanPowerRatioCurve,  !- Name
    0,                       !- Coefficient1 Constant
    1,                       !- Coefficient2 Constant
    3,                       !- Coefficient3 Constant
    0,                       !- Minimum Value of x
    1.5,                     !- Maximum Value of x
    0.01,                    !- Minimum Curve Output
    1.5;                     !- Maximum Curve Output


!-   ===========  ALL OBJECTS IN CLASS: CURVE:BICUBIC ===========

! Curve: ReformEIRChiller Trane CVHF 2799kW/6.40COP/Vanes EIRFPLR
Curve:Bicubic,
    ReformEIRChiller Trane CVHF 2799kW/6.40COP/Vanes EIRFPLR,  !- Name
    3.516172E-01,            !- Coefficient1 Constant
    9.213025E-03,            !- Coefficient2 x
    -2.382325E-05,           !- Coefficient3 x**2
    1.223162E-01,            !- Coefficient4 y
    -1.820075E-01,           !- Coefficient5 y**2
    -7.843422E-03,           !- Coefficient6 x*y
    0.000000E+00,            !- Coefficient7 x**3
    6.884847E-01,            !- Coefficient8 y**3
    0.000000E+00,            !- Coefficient9 x**2*y
    0.000000E+00,            !- Coefficient10 x*y**2
    16.67,                   !- Minimum Value of x
    31.74,                   !- Maximum Value of x
    0.20,                    !- Minimum Value of y
    1.04;                    !- Maximum Value of y


!-   ===========  ALL OBJECTS IN CLASS: CURVE:BIQUADRATIC ===========

! Curve: ReformEIRChiller Trane CVHF 2799kW/6.40COP/Vanes CAPFT
Curve:Biquadratic,
    ReformEIRChiller Trane CVHF 2799kW/6.40COP/Vanes CAPFT,  !- Name
    -2.176308E-01,           !- Coefficient1 Constant
    -4.941294E-02,           !- Coefficient2 x
    8.700615E-05,            !- Coefficient3 x**2
    9.612083E-02,            !- Coefficient4 y
    -2.027636E-03,           !- Coefficient5 y**2
    2.538833E-03,            !- Coefficient6 x*y
    4.44,                    !- Minimum Value of x
    8.89,                    !- Maximum Value of x
    20.38,                   !- Minimum Value of y
    35.07;                   !- Maximum Value of y

! Curve: ReformEIRChiller Trane CVHF 2799kW/6.40COP/Vanes EIRFT
Curve:Biquadratic,
    ReformEIRChiller Trane CVHF 2799kW/6.40COP/Vanes EIRFT,  !- Name
    -1.986966E-02,           !- Coefficient1 Constant
    -7.848021E-02,           !- Coefficient2 x
    1.944174E-03,            !- Coefficient3 x**2
    7.122651E-02,            !- Coefficient4 y
    -9.173802E-04,           !- Coefficient5 y**2
    5.837817E-04,            !- Coefficient6 x*y
    4.44,                    !- Minimum Value of x
    8.89,                    !- Maximum Value of x
    20.38,                   !- Minimum Value of y
    35.07;                   !- Maximum Value of y


!-   ===========  ALL OBJECTS IN CLASS: CURRENCYTYPE ===========

CurrencyType,
    GBP;                     !- Monetary Unit


!-   ===========  ALL OBJECTS IN CLASS: OUTPUT:VARIABLEDICTIONARY ===========

Output:VariableDictionary,
    IDF;                     !- Key Field


!-   ===========  ALL OBJECTS IN CLASS: OUTPUT:SURFACES:LIST ===========

Output:Surfaces:List,
    Details;                 !- Report Type


!-   ===========  ALL OBJECTS IN CLASS: OUTPUT:SURFACES:DRAWING ===========

Output:Surfaces:Drawing,
    DXF,                     !- Report Type
    Triangulate3DFace;       !- Report Specifications 1


!-   ===========  ALL OBJECTS IN CLASS: OUTPUT:CONSTRUCTIONS ===========

Output:Constructions,
    Constructions;           !- Details Type 1


!-   ===========  ALL OBJECTS IN CLASS: OUTPUT:ENERGYMANAGEMENTSYSTEM ===========

Output:EnergyManagementSystem,
    Verbose,                 !- Actuator Availability Dictionary Reporting
    None,                    !- Internal Variable Availability Dictionary Reporting
    None;                    !- EMS Runtime Language Debug Output Level


!-   ===========  ALL OBJECTS IN CLASS: OUTPUT:TABLE:SUMMARYREPORTS ===========

Output:Table:SummaryReports,
    AnnualBuildingUtilityPerformanceSummary,  !- Report 1 Name
    DemandEndUseComponentsSummary,  !- Report 2 Name
    SensibleHeatGainSummary, !- Report 3 Name
    InputVerificationandResultsSummary,  !- Report 4 Name
    AdaptiveComfortSummary,  !- Report 5 Name
    Standard62.1Summary,     !- Report 6 Name
    ClimaticDataSummary,     !- Report 7 Name
    EquipmentSummary,        !- Report 8 Name
    EnvelopeSummary,         !- Report 9 Name
    LightingSummary,         !- Report 10 Name
    HVACSizingSummary,       !- Report 11 Name
    SystemSummary,           !- Report 12 Name
    ComponentSizingSummary,  !- Report 13 Name
    OutdoorAirSummary,       !- Report 14 Name
    ObjectCountSummary,      !- Report 15 Name
    EndUseEnergyConsumptionOtherFuelsMonthly,  !- Report 16 Name
    PeakEnergyEndUseOtherFuelsMonthly;  !- Report 17 Name


!-   ===========  ALL OBJECTS IN CLASS: OUTPUTCONTROL:TABLE:STYLE ===========

OutputControl:Table:Style,
    CommaAndHTML,            !- Column Separator
    JtoKWH;                  !- Unit Conversion


!-   ===========  ALL OBJECTS IN CLASS: OUTPUTCONTROL:REPORTINGTOLERANCES ===========

OutputControl:ReportingTolerances,
    1.11,                    !- Tolerance for Time Heating Setpoint Not Met {deltaC}
    1.11;                    !- Tolerance for Time Cooling Setpoint Not Met {deltaC}


!-   ===========  ALL OBJECTS IN CLASS: OUTPUT:VARIABLE ===========

Output:Variable,
    *,                       !- Key Value
    Chiller Electricity Energy,  !- Variable Name
    Hourly;                  !- Reporting Frequency

Output:Variable,
    *,                       !- Key Value
    Pump Electricity Energy, !- Variable Name
    Hourly;                  !- Reporting Frequency

Output:Variable,
    *,                       !- Key Value
    Cooling Tower Fan Electricity Energy,  !- Variable Name
    Hourly;                  !- Reporting Frequency

Output:Variable,
    *,                       !- Key Value
    Fan Electricity Energy,  !- Variable Name
    Hourly;                  !- Reporting Frequency

Output:Variable,
    *,                       !- Key Value
    Chilled Water Thermal Storage Use Side Heat Transfer Energy,  !- Variable Name
    Hourly;                  !- Reporting Frequency

Output:Variable,
    Chilled Water Storage,   !- Key Value
    Chilled Water Thermal Storage Use Side Heat Transfer Rate,  !- Variable Name
    Hourly;                  !- Reporting Frequency

Output:Variable,
    *,                       !- Key Value
    Chilled Water Thermal Storage Source Side Heat Transfer Energy,  !- Variable Name
    Hourly;                  !- Reporting Frequency

Output:Variable,
    Chilled Water Storage,   !- Key Value
    Chilled Water Thermal Storage Source Side Heat Transfer Rate,  !- Variable Name
    Hourly;                  !- Reporting Frequency

Output:Variable,
    *,                       !- Key Value
    System Node Temperature, !- Variable Name
    Hourly;                  !- Reporting Frequency

Output:Variable,
    *,                       !- Key Value
    System Node Mass Flow Rate,  !- Variable Name
    Hourly;                  !- Reporting Frequency

Output:Variable,
    *,                       !- Key Value
    Zone Mean Air Temperature,  !- Variable Name
    Hourly;                  !- Reporting Frequency

Output:Variable,
    *,                       !- Key Value
    Cooling Coil Total Cooling Energy,  !- Variable Name
    Hourly;                  !- Reporting Frequency

Output:Variable,
    *,                       !- Key Value
    Cooling Coil Total Cooling Rate,  !- Variable Name
    Hourly;                  !- Reporting Frequency

Output:Variable,
    *,                       !- Key Value
    Fluid Heat Exchanger Heat Transfer Rate,  !- Variable Name
    Hourly;                  !- Reporting Frequency

Output:Variable,
    *,                       !- Key Value
    Fluid Heat Exchanger Heat Transfer Energy,  !- Variable Name
    Hourly;                  !- Reporting Frequency

Output:Variable,
    *,                       !- Key Value
    Site Outdoor Air Wetbulb Temperature,  !- Variable Name
    Hourly;                  !- Reporting Frequency

Output:Variable,
    *,                       !- Key Value
    Fluid Heat Exchanger Loop Supply Side Outlet Temperature,  !- Variable Name
    Hourly;                  !- Reporting Frequency

Output:Variable,
    *,                       !- Key Value
    Fluid Heat Exchanger Operation Status,  !- Variable Name
    Hourly;                  !- Reporting Frequency


!-   ===========  ALL OBJECTS IN CLASS: OUTPUT:METER ===========

Output:Meter,
    Electricity:Facility,    !- Key Name
    hourly;                  !- Reporting Frequency

Output:Meter,
    NATURALGAS:Facility,     !- Key Name
    hourly;                  !- Reporting Frequency

Output:Meter,
    InteriorEquipment:Electricity,  !- Key Name
    hourly;                  !- Reporting Frequency

Output:Meter,
    InteriorLights:Electricity,  !- Key Name
    hourly;                  !- Reporting Frequency

Output:Meter,
    Electricity:Facility,    !- Key Name
    daily;                   !- Reporting Frequency

Output:Meter,
    NATURALGAS:Facility,     !- Key Name
    daily;                   !- Reporting Frequency

Output:Meter,
    InteriorEquipment:Electricity,  !- Key Name
    daily;                   !- Reporting Frequency

Output:Meter,
    InteriorLights:Electricity,  !- Key Name
    daily;                   !- Reporting Frequency

Output:Meter,
    Electricity:Facility,    !- Key Name
    monthly;                 !- Reporting Frequency

Output:Meter,
    NATURALGAS:Facility,     !- Key Name
    monthly;                 !- Reporting Frequency

Output:Meter,
    InteriorEquipment:Electricity,  !- Key Name
    monthly;                 !- Reporting Frequency

Output:Meter,
    InteriorLights:Electricity,  !- Key Name
    monthly;                 !- Reporting Frequency

Output:Meter,
    Electricity:Facility,    !- Key Name
    runperiod;               !- Reporting Frequency

Output:Meter,
    NATURALGAS:Facility,     !- Key Name
    runperiod;               !- Reporting Frequency

Output:Meter,
    InteriorEquipment:Electricity,  !- Key Name
    runperiod;               !- Reporting Frequency

Output:Meter,
    InteriorLights:Electricity,  !- Key Name
    runperiod;               !- Reporting Frequency

Output:Meter,
    HeatRejection:Electricity,  !- Key Name
    hourly;                  !- Reporting Frequency

Output:Meter,
    HeatRejection:Electricity,  !- Key Name
    daily;                   !- Reporting Frequency

Output:Meter,
    HeatRejection:Electricity,  !- Key Name
    monthly;                 !- Reporting Frequency

Output:Meter,
    HeatRejection:Electricity,  !- Key Name
    runperiod;               !- Reporting Frequency


!-   ===========  ALL OBJECTS IN CLASS: OUTPUT:ENVIRONMENTALIMPACTFACTORS ===========

Output:EnvironmentalImpactFactors,
    Hourly;                  !- Reporting Frequency

Output:EnvironmentalImpactFactors,
    Daily;                   !- Reporting Frequency

Output:EnvironmentalImpactFactors,
    Monthly;                 !- Reporting Frequency

Output:EnvironmentalImpactFactors,
    RunPeriod;               !- Reporting Frequency


!-   ===========  ALL OBJECTS IN CLASS: ENVIRONMENTALIMPACTFACTORS ===========

EnvironmentalImpactFactors,
    0.3,                     !- District Heating Water Efficiency
    3.0,                     !- District Cooling COP {W/W}
    0.25,                    !- District Heating Steam Conversion Efficiency
    80.7272,                 !- Total Carbon Equivalent Emission Factor From N2O {kg/kg}
    6.2727,                  !- Total Carbon Equivalent Emission Factor From CH4 {kg/kg}
    0.2727;                  !- Total Carbon Equivalent Emission Factor From CO2 {kg/kg}


!-   ===========  ALL OBJECTS IN CLASS: OUTPUT:DIAGNOSTICS ===========

Output:Diagnostics,
    DisplayAdvancedReportVariables;  !- Key 1


!-   ===========  ALL OBJECTS IN CLASS: PYTHONPLUGIN:SEARCHPATHS ===========

PythonPlugin:SearchPaths,
    MyWork,                  !- Name
    Yes,                     !- Add Current Working Directory to Search Path
    Yes,                     !- Add Input File Directory to Search Path
    Yes,                     !- Add epin Environment Variable to Search Path
    C:\Users\user\Desktop\final_set;  !- Search Path 1


!-   ===========  ALL OBJECTS IN CLASS: PYTHONPLUGIN:INSTANCE ===========

PythonPlugin:Instance,
    Condenser OnOff Management,  !- Name
    Yes,                     !- Run During Warmup Days
    PythonPluginPlatnLoopOverrideControl,  !- Python Module Name
    TowerControl;            !- Plugin Class Name


!-   ===========  ALL OBJECTS IN CLASS: PYTHONPLUGIN:VARIABLES ===========

PythonPlugin:Variables,
    PythonGlobalVars,        !- Name
    PumpFlowOverrideReport,  !- Variable Name 1
    CoolingtowerOutTemperature,  !- Variable Name 2
    CoolingtowerWaterFlow,   !- Variable Name 3
    FanFlowOverrideReport,   !- Variable Name 4
    CoolingtowerInTemperature,  !- Variable Name 5
    Heat Transfer;           !- Variable Name 6


!-   ===========  ALL OBJECTS IN CLASS: PYTHONPLUGIN:OUTPUTVARIABLE ===========

PythonPlugin:OutputVariable,
    PythonPlugin Condenser Flow Override On,  !- Name
    PumpFlowOverrideReport,  !- Python Plugin Variable Name
    Averaged,                !- Type of Data in Variable
    SystemTimestep,          !- Update Frequency
    W;                       !- Units

PythonPlugin:OutputVariable,
    PythonPlugin CT_out,     !- Name
    CoolingtowerOutTemperature,  !- Python Plugin Variable Name
    Averaged,                !- Type of Data in Variable
    SystemTimestep,          !- Update Frequency
    C;                       !- Units

PythonPlugin:OutputVariable,
    PythonPlugin m_water,    !- Name
    CoolingtowerWaterFlow,   !- Python Plugin Variable Name
    Averaged,                !- Type of Data in Variable
    SystemTimestep,          !- Update Frequency
    kg/s;                    !- Units

PythonPlugin:OutputVariable,
    PythonPlugin Coolingtower Fan Flow Override On,  !- Name
    FanFlowOverrideReport,   !- Python Plugin Variable Name
    Averaged,                !- Type of Data in Variable
    SystemTimestep;          !- Update Frequency

PythonPlugin:OutputVariable,
    PythonPlugin CT_in,      !- Name
    CoolingtowerInTemperature,  !- Python Plugin Variable Name
    Averaged,                !- Type of Data in Variable
    SystemTimestep,          !- Update Frequency
    C;                       !- Units

PythonPlugin:OutputVariable,
    PythonPlugin Condenser Flow Override On2,  !- Name
    PumpFlowOverrideReport,  !- Python Plugin Variable Name
    Averaged,                !- Type of Data in Variable
    SystemTimestep,          !- Update Frequency
    W;                       !- Units
